ATOMIC_SPECIES
C 6.000 ./C_ONCV_PBE-1.0.upf

NUMERICAL_ORBITAL
./C_gga_8au_100Ry_2s2p1d.orb

LATTICE_CONSTANT
1.889716

LATTICE_VECTORS
       113.1370024668       63.8996858132       0.0000000000
       -14.7534375571       26.1215635108       0.0000000000
       56.5685012334       31.9498429066       112.5271673004

ATOMIC_POSITIONS
Direct

C
0.0
11164
     0.000358290     0.100000000     0.967036900 1 1 1
     0.011107130     0.100000000     0.978144030 1 1 1
     0.021855970     0.100000000     0.989251160 1 1 1
     0.000716590     0.100000000     0.934073810 1 1 1
     0.011465420     0.100000000     0.945180940 1 1 1
     0.022214260     0.100000000     0.956288070 1 1 1
     0.032963100     0.100000000     0.967395200 1 1 1
     0.043711930     0.100000000     0.978502330 1 1 1
     0.054460770     0.100000000     0.989609460 1 1 1
     0.001074880     0.100000000     0.901110710 1 1 1
     0.011823720     0.100000000     0.912217840 1 1 1
     0.022572550     0.100000000     0.923324970 1 1 1
     0.033321390     0.100000000     0.934432100 1 1 1
     0.044070230     0.100000000     0.945539230 1 1 1
     0.054819060     0.100000000     0.956646360 1 1 1
     0.065567900     0.100000000     0.967753490 1 1 1
     0.076316730     0.100000000     0.978860620 1 1 1
     0.087065570     0.100000000     0.989967750 1 1 1
     0.001433180     0.100000000     0.868147620 1 1 1
     0.012182010     0.100000000     0.879254750 1 1 1
     0.022930850     0.100000000     0.890361880 1 1 1
     0.033679680     0.100000000     0.901469010 1 1 1
     0.044428520     0.100000000     0.912576140 1 1 1
     0.055177360     0.100000000     0.923683270 1 1 1
     0.065926190     0.100000000     0.934790400 1 1 1
     0.076675030     0.100000000     0.945897530 1 1 1
     0.087423860     0.100000000     0.957004660 1 1 1
     0.098172700     0.100000000     0.968111790 1 1 1
     0.108921530     0.100000000     0.979218920 1 1 1
     0.119670370     0.100000000     0.990326050 1 1 1
     0.001791470     0.100000000     0.835184520 1 1 1
     0.012540310     0.100000000     0.846291650 1 1 1
     0.023289140     0.100000000     0.857398780 1 1 1
     0.034037980     0.100000000     0.868505910 1 1 1
     0.044786810     0.100000000     0.879613040 1 1 1
     0.055535650     0.100000000     0.890720170 1 1 1
     0.066284490     0.100000000     0.901827300 1 1 1
     0.077033320     0.100000000     0.912934430 1 1 1
     0.087782160     0.100000000     0.924041560 1 1 1
     0.098530990     0.100000000     0.935148690 1 1 1
     0.109279830     0.100000000     0.946255820 1 1 1
     0.120028660     0.100000000     0.957362950 1 1 1
     0.130777500     0.100000000     0.968470080 1 1 1
     0.141526330     0.100000000     0.979577210 1 1 1
     0.152275170     0.100000000     0.990684340 1 1 1
     0.002149770     0.100000000     0.802221430 1 1 1
     0.012898600     0.100000000     0.813328560 1 1 1
     0.023647440     0.100000000     0.824435690 1 1 1
     0.034396270     0.100000000     0.835542820 1 1 1
     0.045145110     0.100000000     0.846649950 1 1 1
     0.055893940     0.100000000     0.857757080 1 1 1
     0.066642780     0.100000000     0.868864210 1 1 1
     0.077391620     0.100000000     0.879971340 1 1 1
     0.088140450     0.100000000     0.891078470 1 1 1
     0.098889290     0.100000000     0.902185600 1 1 1
     0.109638120     0.100000000     0.913292730 1 1 1
     0.120386960     0.100000000     0.924399860 1 1 1
     0.131135790     0.100000000     0.935506990 1 1 1
     0.141884630     0.100000000     0.946614120 1 1 1
     0.152633460     0.100000000     0.957721250 1 1 1
     0.163382300     0.100000000     0.968828380 1 1 1
     0.174131140     0.100000000     0.979935510 1 1 1
     0.184879970     0.100000000     0.991042640 1 1 1
     0.002508060     0.100000000     0.769258330 1 1 1
     0.013256900     0.100000000     0.780365460 1 1 1
     0.024005730     0.100000000     0.791472590 1 1 1
     0.034754570     0.100000000     0.802579720 1 1 1
     0.045503400     0.100000000     0.813686850 1 1 1
     0.056252240     0.100000000     0.824793980 1 1 1
     0.067001070     0.100000000     0.835901110 1 1 1
     0.077749910     0.100000000     0.847008240 1 1 1
     0.088498750     0.100000000     0.858115370 1 1 1
     0.099247580     0.100000000     0.869222500 1 1 1
     0.109996420     0.100000000     0.880329630 1 1 1
     0.120745250     0.100000000     0.891436760 1 1 1
     0.131494090     0.100000000     0.902543890 1 1 1
     0.142242920     0.100000000     0.913651020 1 1 1
     0.152991760     0.100000000     0.924758150 1 1 1
     0.163740590     0.100000000     0.935865280 1 1 1
     0.174489430     0.100000000     0.946972410 1 1 1
     0.185238270     0.100000000     0.958079540 1 1 1
     0.195987100     0.100000000     0.969186670 1 1 1
     0.206735940     0.100000000     0.980293800 1 1 1
     0.217484770     0.100000000     0.991400930 1 1 1
     0.002866360     0.100000000     0.736295230 1 1 1
     0.013615190     0.100000000     0.747402360 1 1 1
     0.024364030     0.100000000     0.758509490 1 1 1
     0.035112860     0.100000000     0.769616620 1 1 1
     0.045861700     0.100000000     0.780723750 1 1 1
     0.056610530     0.100000000     0.791830880 1 1 1
     0.067359370     0.100000000     0.802938020 1 1 1
     0.078108200     0.100000000     0.814045150 1 1 1
     0.088857040     0.100000000     0.825152280 1 1 1
     0.099605880     0.100000000     0.836259410 1 1 1
     0.110354710     0.100000000     0.847366540 1 1 1
     0.121103550     0.100000000     0.858473670 1 1 1
     0.131852380     0.100000000     0.869580800 1 1 1
     0.142601220     0.100000000     0.880687930 1 1 1
     0.153350050     0.100000000     0.891795060 1 1 1
     0.164098890     0.100000000     0.902902190 1 1 1
     0.174847720     0.100000000     0.914009320 1 1 1
     0.185596560     0.100000000     0.925116450 1 1 1
     0.196345400     0.100000000     0.936223580 1 1 1
     0.207094230     0.100000000     0.947330710 1 1 1
     0.217843070     0.100000000     0.958437840 1 1 1
     0.228591900     0.100000000     0.969544970 1 1 1
     0.239340740     0.100000000     0.980652100 1 1 1
     0.250089570     0.100000000     0.991759230 1 1 1
     0.003224650     0.100000000     0.703332140 1 1 1
     0.013973490     0.100000000     0.714439270 1 1 1
     0.024722320     0.100000000     0.725546400 1 1 1
     0.035471160     0.100000000     0.736653530 1 1 1
     0.046219990     0.100000000     0.747760660 1 1 1
     0.056968830     0.100000000     0.758867790 1 1 1
     0.067717660     0.100000000     0.769974920 1 1 1
     0.078466500     0.100000000     0.781082050 1 1 1
     0.089215340     0.100000000     0.792189180 1 1 1
     0.099964170     0.100000000     0.803296310 1 1 1
     0.110713010     0.100000000     0.814403440 1 1 1
     0.121461840     0.100000000     0.825510570 1 1 1
     0.132210680     0.100000000     0.836617700 1 1 1
     0.142959510     0.100000000     0.847724830 1 1 1
     0.153708350     0.100000000     0.858831960 1 1 1
     0.164457180     0.100000000     0.869939090 1 1 1
     0.175206020     0.100000000     0.881046220 1 1 1
     0.185954850     0.100000000     0.892153350 1 1 1
     0.196703690     0.100000000     0.903260480 1 1 1
     0.207452530     0.100000000     0.914367610 1 1 1
     0.218201360     0.100000000     0.925474740 1 1 1
     0.228950200     0.100000000     0.936581870 1 1 1
     0.239699030     0.100000000     0.947689000 1 1 1
     0.250447870     0.100000000     0.958796130 1 1 1
     0.261196700     0.100000000     0.969903260 1 1 1
     0.271945540     0.100000000     0.981010390 1 1 1
     0.282694370     0.100000000     0.992117520 1 1 1
     0.003582950     0.100000000     0.670369040 1 1 1
     0.014331780     0.100000000     0.681476170 1 1 1
     0.025080620     0.100000000     0.692583300 1 1 1
     0.035829450     0.100000000     0.703690430 1 1 1
     0.046578290     0.100000000     0.714797560 1 1 1
     0.057327120     0.100000000     0.725904690 1 1 1
     0.068075960     0.100000000     0.737011820 1 1 1
     0.078824790     0.100000000     0.748118950 1 1 1
     0.089573630     0.100000000     0.759226080 1 1 1
     0.100322470     0.100000000     0.770333210 1 1 1
     0.111071300     0.100000000     0.781440340 1 1 1
     0.121820140     0.100000000     0.792547470 1 1 1
     0.132568970     0.100000000     0.803654600 1 1 1
     0.143317810     0.100000000     0.814761730 1 1 1
     0.154066640     0.100000000     0.825868860 1 1 1
     0.164815480     0.100000000     0.836975990 1 1 1
     0.175564310     0.100000000     0.848083120 1 1 1
     0.186313150     0.100000000     0.859190250 1 1 1
     0.197061980     0.100000000     0.870297380 1 1 1
     0.207810820     0.100000000     0.881404510 1 1 1
     0.218559660     0.100000000     0.892511640 1 1 1
     0.229308490     0.100000000     0.903618770 1 1 1
     0.240057330     0.100000000     0.914725900 1 1 1
     0.250806160     0.100000000     0.925833030 1 1 1
     0.261555000     0.100000000     0.936940160 1 1 1
     0.272303830     0.100000000     0.948047290 1 1 1
     0.283052670     0.100000000     0.959154420 1 1 1
     0.293801500     0.100000000     0.970261550 1 1 1
     0.304550340     0.100000000     0.981368690 1 1 1
     0.315299180     0.100000000     0.992475820 1 1 1
     0.003941240     0.100000000     0.637405950 1 1 1
     0.014690080     0.100000000     0.648513080 1 1 1
     0.025438910     0.100000000     0.659620210 1 1 1
     0.036187750     0.100000000     0.670727340 1 1 1
     0.046936580     0.100000000     0.681834470 1 1 1
     0.057685420     0.100000000     0.692941600 1 1 1
     0.068434250     0.100000000     0.704048730 1 1 1
     0.079183090     0.100000000     0.715155860 1 1 1
     0.089931920     0.100000000     0.726262990 1 1 1
     0.100680760     0.100000000     0.737370120 1 1 1
     0.111429600     0.100000000     0.748477250 1 1 1
     0.122178430     0.100000000     0.759584380 1 1 1
     0.132927270     0.100000000     0.770691510 1 1 1
     0.143676100     0.100000000     0.781798640 1 1 1
     0.154424940     0.100000000     0.792905770 1 1 1
     0.165173770     0.100000000     0.804012900 1 1 1
     0.175922610     0.100000000     0.815120030 1 1 1
     0.186671440     0.100000000     0.826227160 1 1 1
     0.197420280     0.100000000     0.837334290 1 1 1
     0.208169120     0.100000000     0.848441420 1 1 1
     0.218917950     0.100000000     0.859548550 1 1 1
     0.229666790     0.100000000     0.870655680 1 1 1
     0.240415620     0.100000000     0.881762810 1 1 1
     0.251164460     0.100000000     0.892869940 1 1 1
     0.261913290     0.100000000     0.903977070 1 1 1
     0.272662130     0.100000000     0.915084200 1 1 1
     0.283410960     0.100000000     0.926191330 1 1 1
     0.294159800     0.100000000     0.937298460 1 1 1
     0.304908630     0.100000000     0.948405590 1 1 1
     0.315657470     0.100000000     0.959512720 1 1 1
     0.326406310     0.100000000     0.970619850 1 1 1
     0.337155140     0.100000000     0.981726980 1 1 1
     0.347903980     0.100000000     0.992834110 1 1 1
     0.004299530     0.100000000     0.604442850 1 1 1
     0.015048370     0.100000000     0.615549980 1 1 1
     0.025797210     0.100000000     0.626657110 1 1 1
     0.036546040     0.100000000     0.637764240 1 1 1
     0.047294880     0.100000000     0.648871370 1 1 1
     0.058043710     0.100000000     0.659978500 1 1 1
     0.068792550     0.100000000     0.671085630 1 1 1
     0.079541380     0.100000000     0.682192760 1 1 1
     0.090290220     0.100000000     0.693299890 1 1 1
     0.101039050     0.100000000     0.704407020 1 1 1
     0.111787890     0.100000000     0.715514150 1 1 1
     0.122536730     0.100000000     0.726621280 1 1 1
     0.133285560     0.100000000     0.737728410 1 1 1
     0.144034400     0.100000000     0.748835540 1 1 1
     0.154783230     0.100000000     0.759942670 1 1 1
     0.165532070     0.100000000     0.771049800 1 1 1
     0.176280900     0.100000000     0.782156930 1 1 1
     0.187029740     0.100000000     0.793264060 1 1 1
     0.197778570     0.100000000     0.804371190 1 1 1
     0.208527410     0.100000000     0.815478320 1 1 1
     0.219276250     0.100000000     0.826585450 1 1 1
     0.230025080     0.100000000     0.837692580 1 1 1
     0.240773920     0.100000000     0.848799710 1 1 1
     0.251522750     0.100000000     0.859906840 1 1 1
     0.262271590     0.100000000     0.871013970 1 1 1
     0.273020420     0.100000000     0.882121100 1 1 1
     0.283769260     0.100000000     0.893228230 1 1 1
     0.294518090     0.100000000     0.904335360 1 1 1
     0.305266930     0.100000000     0.915442490 1 1 1
     0.316015760     0.100000000     0.926549620 1 1 1
     0.326764600     0.100000000     0.937656750 1 1 1
     0.337513440     0.100000000     0.948763880 1 1 1
     0.348262270     0.100000000     0.959871010 1 1 1
     0.359011110     0.100000000     0.970978140 1 1 1
     0.369759940     0.100000000     0.982085270 1 1 1
     0.380508780     0.100000000     0.993192400 1 1 1
     0.004657830     0.100000000     0.571479760 1 1 1
     0.015406660     0.100000000     0.582586890 1 1 1
     0.026155500     0.100000000     0.593694020 1 1 1
     0.036904340     0.100000000     0.604801150 1 1 1
     0.047653170     0.100000000     0.615908280 1 1 1
     0.058402010     0.100000000     0.627015410 1 1 1
     0.069150840     0.100000000     0.638122540 1 1 1
     0.079899680     0.100000000     0.649229670 1 1 1
     0.090648510     0.100000000     0.660336800 1 1 1
     0.101397350     0.100000000     0.671443930 1 1 1
     0.112146180     0.100000000     0.682551060 1 1 1
     0.122895020     0.100000000     0.693658190 1 1 1
     0.133643860     0.100000000     0.704765320 1 1 1
     0.144392690     0.100000000     0.715872450 1 1 1
     0.155141530     0.100000000     0.726979580 1 1 1
     0.165890360     0.100000000     0.738086710 1 1 1
     0.176639200     0.100000000     0.749193840 1 1 1
     0.187388030     0.100000000     0.760300970 1 1 1
     0.198136870     0.100000000     0.771408100 1 1 1
     0.208885700     0.100000000     0.782515230 1 1 1
     0.219634540     0.100000000     0.793622360 1 1 1
     0.230383380     0.100000000     0.804729490 1 1 1
     0.241132210     0.100000000     0.815836620 1 1 1
     0.251881050     0.100000000     0.826943750 1 1 1
     0.262629880     0.100000000     0.838050880 1 1 1
     0.273378720     0.100000000     0.849158010 1 1 1
     0.284127550     0.100000000     0.860265140 1 1 1
     0.294876390     0.100000000     0.871372270 1 1 1
     0.305625220     0.100000000     0.882479400 1 1 1
     0.316374060     0.100000000     0.893586530 1 1 1
     0.327122900     0.100000000     0.904693660 1 1 1
     0.337871730     0.100000000     0.915800790 1 1 1
     0.348620570     0.100000000     0.926907920 1 1 1
     0.359369400     0.100000000     0.938015050 1 1 1
     0.370118240     0.100000000     0.949122180 1 1 1
     0.380867070     0.100000000     0.960229310 1 1 1
     0.391615910     0.100000000     0.971336440 1 1 1
     0.402364740     0.100000000     0.982443570 1 1 1
     0.413113580     0.100000000     0.993550700 1 1 1
     0.005016120     0.100000000     0.538516660 1 1 1
     0.015764960     0.100000000     0.549623790 1 1 1
     0.026513790     0.100000000     0.560730920 1 1 1
     0.037262630     0.100000000     0.571838050 1 1 1
     0.048011470     0.100000000     0.582945180 1 1 1
     0.058760300     0.100000000     0.594052310 1 1 1
     0.069509140     0.100000000     0.605159440 1 1 1
     0.080257970     0.100000000     0.616266570 1 1 1
     0.091006810     0.100000000     0.627373700 1 1 1
     0.101755640     0.100000000     0.638480830 1 1 1
     0.112504480     0.100000000     0.649587960 1 1 1
     0.123253310     0.100000000     0.660695090 1 1 1
     0.134002150     0.100000000     0.671802220 1 1 1
     0.144750990     0.100000000     0.682909350 1 1 1
     0.155499820     0.100000000     0.694016480 1 1 1
     0.166248660     0.100000000     0.705123610 1 1 1
     0.176997490     0.100000000     0.716230740 1 1 1
     0.187746330     0.100000000     0.727337870 1 1 1
     0.198495160     0.100000000     0.738445000 1 1 1
     0.209244000     0.100000000     0.749552130 1 1 1
     0.219992830     0.100000000     0.760659260 1 1 1
     0.230741670     0.100000000     0.771766390 1 1 1
     0.241490510     0.100000000     0.782873520 1 1 1
     0.252239340     0.100000000     0.793980650 1 1 1
     0.262988180     0.100000000     0.805087780 1 1 1
     0.273737010     0.100000000     0.816194910 1 1 1
     0.284485850     0.100000000     0.827302040 1 1 1
     0.295234680     0.100000000     0.838409170 1 1 1
     0.305983520     0.100000000     0.849516300 1 1 1
     0.316732350     0.100000000     0.860623430 1 1 1
     0.327481190     0.100000000     0.871730560 1 1 1
     0.338230030     0.100000000     0.882837690 1 1 1
     0.348978860     0.100000000     0.893944820 1 1 1
     0.359727700     0.100000000     0.905051950 1 1 1
     0.370476530     0.100000000     0.916159080 1 1 1
     0.381225370     0.100000000     0.927266210 1 1 1
     0.391974200     0.100000000     0.938373340 1 1 1
     0.402723040     0.100000000     0.949480470 1 1 1
     0.413471870     0.100000000     0.960587600 1 1 1
     0.424220710     0.100000000     0.971694730 1 1 1
     0.434969540     0.100000000     0.982801860 1 1 1
     0.445718380     0.100000000     0.993908990 1 1 1
     0.005374420     0.100000000     0.505553570 1 1 1
     0.016123250     0.100000000     0.516660700 1 1 1
     0.026872090     0.100000000     0.527767830 1 1 1
     0.037620920     0.100000000     0.538874960 1 1 1
     0.048369760     0.100000000     0.549982090 1 1 1
     0.059118600     0.100000000     0.561089220 1 1 1
     0.069867430     0.100000000     0.572196350 1 1 1
     0.080616270     0.100000000     0.583303480 1 1 1
     0.091365100     0.100000000     0.594410610 1 1 1
     0.102113940     0.100000000     0.605517740 1 1 1
     0.112862770     0.100000000     0.616624870 1 1 1
     0.123611610     0.100000000     0.627732000 1 1 1
     0.134360440     0.100000000     0.638839130 1 1 1
     0.145109280     0.100000000     0.649946260 1 1 1
     0.155858120     0.100000000     0.661053390 1 1 1
     0.166606950     0.100000000     0.672160520 1 1 1
     0.177355790     0.100000000     0.683267650 1 1 1
     0.188104620     0.100000000     0.694374780 1 1 1
     0.198853460     0.100000000     0.705481910 1 1 1
     0.209602290     0.100000000     0.716589040 1 1 1
     0.220351130     0.100000000     0.727696170 1 1 1
     0.231099960     0.100000000     0.738803300 1 1 1
     0.241848800     0.100000000     0.749910430 1 1 1
     0.252597640     0.100000000     0.761017560 1 1 1
     0.263346470     0.100000000     0.772124690 1 1 1
     0.274095310     0.100000000     0.783231820 1 1 1
     0.284844140     0.100000000     0.794338950 1 1 1
     0.295592980     0.100000000     0.805446080 1 1 1
     0.306341810     0.100000000     0.816553210 1 1 1
     0.317090650     0.100000000     0.827660340 1 1 1
     0.327839480     0.100000000     0.838767470 1 1 1
     0.338588320     0.100000000     0.849874600 1 1 1
     0.349337160     0.100000000     0.860981730 1 1 1
     0.360085990     0.100000000     0.872088860 1 1 1
     0.370834830     0.100000000     0.883195990 1 1 1
     0.381583660     0.100000000     0.894303120 1 1 1
     0.392332500     0.100000000     0.905410250 1 1 1
     0.403081330     0.100000000     0.916517380 1 1 1
     0.413830170     0.100000000     0.927624510 1 1 1
     0.424579000     0.100000000     0.938731640 1 1 1
     0.435327840     0.100000000     0.949838770 1 1 1
     0.446076680     0.100000000     0.960945900 1 1 1
     0.456825510     0.100000000     0.972053030 1 1 1
     0.467574350     0.100000000     0.983160160 1 1 1
     0.478323180     0.100000000     0.994267290 1 1 1
     0.005732710     0.100000000     0.472590470 1 1 1
     0.016481550     0.100000000     0.483697600 1 1 1
     0.027230380     0.100000000     0.494804730 1 1 1
     0.037979220     0.100000000     0.505911860 1 1 1
     0.048728050     0.100000000     0.517018990 1 1 1
     0.059476890     0.100000000     0.528126120 1 1 1
     0.070225730     0.100000000     0.539233250 1 1 1
     0.080974560     0.100000000     0.550340380 1 1 1
     0.091723400     0.100000000     0.561447510 1 1 1
     0.102472230     0.100000000     0.572554640 1 1 1
     0.113221070     0.100000000     0.583661770 1 1 1
     0.123969900     0.100000000     0.594768900 1 1 1
     0.134718740     0.100000000     0.605876030 1 1 1
     0.145467570     0.100000000     0.616983160 1 1 1
     0.156216410     0.100000000     0.628090290 1 1 1
     0.166965250     0.100000000     0.639197420 1 1 1
     0.177714080     0.100000000     0.650304550 1 1 1
     0.188462920     0.100000000     0.661411680 1 1 1
     0.199211750     0.100000000     0.672518810 1 1 1
     0.209960590     0.100000000     0.683625940 1 1 1
     0.220709420     0.100000000     0.694733070 1 1 1
     0.231458260     0.100000000     0.705840200 1 1 1
     0.242207090     0.100000000     0.716947330 1 1 1
     0.252955930     0.100000000     0.728054460 1 1 1
     0.263704770     0.100000000     0.739161590 1 1 1
     0.274453600     0.100000000     0.750268720 1 1 1
     0.285202440     0.100000000     0.761375850 1 1 1
     0.295951270     0.100000000     0.772482980 1 1 1
     0.306700110     0.100000000     0.783590110 1 1 1
     0.317448940     0.100000000     0.794697240 1 1 1
     0.328197780     0.100000000     0.805804370 1 1 1
     0.338946610     0.100000000     0.816911500 1 1 1
     0.349695450     0.100000000     0.828018630 1 1 1
     0.360444290     0.100000000     0.839125760 1 1 1
     0.371193120     0.100000000     0.850232890 1 1 1
     0.381941960     0.100000000     0.861340020 1 1 1
     0.392690790     0.100000000     0.872447150 1 1 1
     0.403439630     0.100000000     0.883554280 1 1 1
     0.414188460     0.100000000     0.894661410 1 1 1
     0.424937300     0.100000000     0.905768540 1 1 1
     0.435686130     0.100000000     0.916875670 1 1 1
     0.446434970     0.100000000     0.927982800 1 1 1
     0.457183810     0.100000000     0.939089930 1 1 1
     0.467932640     0.100000000     0.950197060 1 1 1
     0.478681480     0.100000000     0.961304190 1 1 1
     0.489430310     0.100000000     0.972411320 1 1 1
     0.500179150     0.100000000     0.983518450 1 1 1
     0.510927980     0.100000000     0.994625580 1 1 1
     0.006091010     0.100000000     0.439627370 1 1 1
     0.016839840     0.100000000     0.450734500 1 1 1
     0.027588680     0.100000000     0.461841630 1 1 1
     0.038337510     0.100000000     0.472948760 1 1 1
     0.049086350     0.100000000     0.484055890 1 1 1
     0.059835180     0.100000000     0.495163020 1 1 1
     0.070584020     0.100000000     0.506270150 1 1 1
     0.081332860     0.100000000     0.517377280 1 1 1
     0.092081690     0.100000000     0.528484410 1 1 1
     0.102830530     0.100000000     0.539591540 1 1 1
     0.113579360     0.100000000     0.550698670 1 1 1
     0.124328200     0.100000000     0.561805800 1 1 1
     0.135077030     0.100000000     0.572912930 1 1 1
     0.145825870     0.100000000     0.584020060 1 1 1
     0.156574700     0.100000000     0.595127190 1 1 1
     0.167323540     0.100000000     0.606234320 1 1 1
     0.178072380     0.100000000     0.617341450 1 1 1
     0.188821210     0.100000000     0.628448580 1 1 1
     0.199570050     0.100000000     0.639555710 1 1 1
     0.210318880     0.100000000     0.650662840 1 1 1
     0.221067720     0.100000000     0.661769970 1 1 1
     0.231816550     0.100000000     0.672877100 1 1 1
     0.242565390     0.100000000     0.683984240 1 1 1
     0.253314220     0.100000000     0.695091370 1 1 1
     0.264063060     0.100000000     0.706198500 1 1 1
     0.274811900     0.100000000     0.717305630 1 1 1
     0.285560730     0.100000000     0.728412760 1 1 1
     0.296309570     0.100000000     0.739519890 1 1 1
     0.307058400     0.100000000     0.750627020 1 1 1
     0.317807240     0.100000000     0.761734150 1 1 1
     0.328556070     0.100000000     0.772841280 1 1 1
     0.339304910     0.100000000     0.783948410 1 1 1
     0.350053740     0.100000000     0.795055540 1 1 1
     0.360802580     0.100000000     0.806162670 1 1 1
     0.371551420     0.100000000     0.817269800 1 1 1
     0.382300250     0.100000000     0.828376930 1 1 1
     0.393049090     0.100000000     0.839484060 1 1 1
     0.403797920     0.100000000     0.850591190 1 1 1
     0.414546760     0.100000000     0.861698320 1 1 1
     0.425295590     0.100000000     0.872805450 1 1 1
     0.436044430     0.100000000     0.883912580 1 1 1
     0.446793260     0.100000000     0.895019710 1 1 1
     0.457542100     0.100000000     0.906126840 1 1 1
     0.468290940     0.100000000     0.917233970 1 1 1
     0.479039770     0.100000000     0.928341100 1 1 1
     0.489788610     0.100000000     0.939448230 1 1 1
     0.500537440     0.100000000     0.950555360 1 1 1
     0.511286280     0.100000000     0.961662490 1 1 1
     0.522035110     0.100000000     0.972769620 1 1 1
     0.532783950     0.100000000     0.983876750 1 1 1
     0.543532780     0.100000000     0.994983880 1 1 1
     0.006449300     0.100000000     0.406664280 1 1 1
     0.017198140     0.100000000     0.417771410 1 1 1
     0.027946970     0.100000000     0.428878540 1 1 1
     0.038695810     0.100000000     0.439985670 1 1 1
     0.049444640     0.100000000     0.451092800 1 1 1
     0.060193480     0.100000000     0.462199930 1 1 1
     0.070942310     0.100000000     0.473307060 1 1 1
     0.081691150     0.100000000     0.484414190 1 1 1
     0.092439990     0.100000000     0.495521320 1 1 1
     0.103188820     0.100000000     0.506628450 1 1 1
     0.113937660     0.100000000     0.517735580 1 1 1
     0.124686490     0.100000000     0.528842710 1 1 1
     0.135435330     0.100000000     0.539949840 1 1 1
     0.146184160     0.100000000     0.551056970 1 1 1
     0.156933000     0.100000000     0.562164100 1 1 1
     0.167681830     0.100000000     0.573271230 1 1 1
     0.178430670     0.100000000     0.584378360 1 1 1
     0.189179510     0.100000000     0.595485490 1 1 1
     0.199928340     0.100000000     0.606592620 1 1 1
     0.210677180     0.100000000     0.617699750 1 1 1
     0.221426010     0.100000000     0.628806880 1 1 1
     0.232174850     0.100000000     0.639914010 1 1 1
     0.242923680     0.100000000     0.651021140 1 1 1
     0.253672520     0.100000000     0.662128270 1 1 1
     0.264421350     0.100000000     0.673235400 1 1 1
     0.275170190     0.100000000     0.684342530 1 1 1
     0.285919030     0.100000000     0.695449660 1 1 1
     0.296667860     0.100000000     0.706556790 1 1 1
     0.307416700     0.100000000     0.717663920 1 1 1
     0.318165530     0.100000000     0.728771050 1 1 1
     0.328914370     0.100000000     0.739878180 1 1 1
     0.339663200     0.100000000     0.750985310 1 1 1
     0.350412040     0.100000000     0.762092440 1 1 1
     0.361160870     0.100000000     0.773199570 1 1 1
     0.371909710     0.100000000     0.784306700 1 1 1
     0.382658550     0.100000000     0.795413830 1 1 1
     0.393407380     0.100000000     0.806520960 1 1 1
     0.404156220     0.100000000     0.817628090 1 1 1
     0.414905050     0.100000000     0.828735220 1 1 1
     0.425653890     0.100000000     0.839842350 1 1 1
     0.436402720     0.100000000     0.850949480 1 1 1
     0.447151560     0.100000000     0.862056610 1 1 1
     0.457900390     0.100000000     0.873163740 1 1 1
     0.468649230     0.100000000     0.884270870 1 1 1
     0.479398070     0.100000000     0.895378000 1 1 1
     0.490146900     0.100000000     0.906485130 1 1 1
     0.500895740     0.100000000     0.917592260 1 1 1
     0.511644570     0.100000000     0.928699390 1 1 1
     0.522393410     0.100000000     0.939806520 1 1 1
     0.533142240     0.100000000     0.950913650 1 1 1
     0.543891080     0.100000000     0.962020780 1 1 1
     0.554639910     0.100000000     0.973127910 1 1 1
     0.565388750     0.100000000     0.984235040 1 1 1
     0.576137590     0.100000000     0.995342170 1 1 1
     0.006807600     0.100000000     0.373701180 1 1 1
     0.017556430     0.100000000     0.384808310 1 1 1
     0.028305270     0.100000000     0.395915440 1 1 1
     0.039054100     0.100000000     0.407022570 1 1 1
     0.049802940     0.100000000     0.418129700 1 1 1
     0.060551770     0.100000000     0.429236830 1 1 1
     0.071300610     0.100000000     0.440343960 1 1 1
     0.082049440     0.100000000     0.451451090 1 1 1
     0.092798280     0.100000000     0.462558220 1 1 1
     0.103547120     0.100000000     0.473665350 1 1 1
     0.114295950     0.100000000     0.484772480 1 1 1
     0.125044790     0.100000000     0.495879610 1 1 1
     0.135793620     0.100000000     0.506986740 1 1 1
     0.146542460     0.100000000     0.518093870 1 1 1
     0.157291290     0.100000000     0.529201000 1 1 1
     0.168040130     0.100000000     0.540308130 1 1 1
     0.178788960     0.100000000     0.551415260 1 1 1
     0.189537800     0.100000000     0.562522390 1 1 1
     0.200286640     0.100000000     0.573629520 1 1 1
     0.211035470     0.100000000     0.584736650 1 1 1
     0.221784310     0.100000000     0.595843780 1 1 1
     0.232533140     0.100000000     0.606950910 1 1 1
     0.243281980     0.100000000     0.618058040 1 1 1
     0.254030810     0.100000000     0.629165170 1 1 1
     0.264779650     0.100000000     0.640272300 1 1 1