ATOMIC_SPECIES
C 6.000 ./C_ONCV_PBE-1.0.upf

NUMERICAL_ORBITAL
./C_gga_8au_100Ry_2s2p1d.orb

LATTICE_CONSTANT
1.889716

LATTICE_VECTORS
       94.6907475275       53.2497356296       0.0000000000
       -14.7049401222       26.1488955025       0.0000000000
       47.3453737637       26.6248678148       94.0819005386

ATOMIC_POSITIONS
Direct

C
0.0
7804
     0.000512560     0.100000000     0.960533060 1 1 1
     0.013326500     0.100000000     0.973859560 1 1 1
     0.026140440     0.100000000     0.987186060 1 1 1
     0.001025120     0.100000000     0.921066120 1 1 1
     0.013839060     0.100000000     0.934392620 1 1 1
     0.026653000     0.100000000     0.947719120 1 1 1
     0.039466940     0.100000000     0.961045620 1 1 1
     0.052280880     0.100000000     0.974372120 1 1 1
     0.065094820     0.100000000     0.987698620 1 1 1
     0.001537670     0.100000000     0.881599180 1 1 1
     0.014351610     0.100000000     0.894925680 1 1 1
     0.027165560     0.100000000     0.908252180 1 1 1
     0.039979500     0.100000000     0.921578680 1 1 1
     0.052793440     0.100000000     0.934905180 1 1 1
     0.065607380     0.100000000     0.948231680 1 1 1
     0.078421320     0.100000000     0.961558180 1 1 1
     0.091235260     0.100000000     0.974884670 1 1 1
     0.104049210     0.100000000     0.988211170 1 1 1
     0.002050230     0.100000000     0.842132240 1 1 1
     0.014864170     0.100000000     0.855458740 1 1 1
     0.027678110     0.100000000     0.868785240 1 1 1
     0.040492060     0.100000000     0.882111740 1 1 1
     0.053306000     0.100000000     0.895438240 1 1 1
     0.066119940     0.100000000     0.908764740 1 1 1
     0.078933880     0.100000000     0.922091240 1 1 1
     0.091747820     0.100000000     0.935417730 1 1 1
     0.104561760     0.100000000     0.948744230 1 1 1
     0.117375700     0.100000000     0.962070730 1 1 1
     0.130189650     0.100000000     0.975397230 1 1 1
     0.143003590     0.100000000     0.988723730 1 1 1
     0.002562790     0.100000000     0.802665300 1 1 1
     0.015376730     0.100000000     0.815991800 1 1 1
     0.028190670     0.100000000     0.829318300 1 1 1
     0.041004610     0.100000000     0.842644800 1 1 1
     0.053818550     0.100000000     0.855971300 1 1 1
     0.066632500     0.100000000     0.869297800 1 1 1
     0.079446440     0.100000000     0.882624300 1 1 1
     0.092260380     0.100000000     0.895950790 1 1 1
     0.105074320     0.100000000     0.909277290 1 1 1
     0.117888260     0.100000000     0.922603790 1 1 1
     0.130702200     0.100000000     0.935930290 1 1 1
     0.143516150     0.100000000     0.949256790 1 1 1
     0.156330090     0.100000000     0.962583290 1 1 1
     0.169144030     0.100000000     0.975909790 1 1 1
     0.181957970     0.100000000     0.989236290 1 1 1
     0.003075350     0.100000000     0.763198360 1 1 1
     0.015889290     0.100000000     0.776524860 1 1 1
     0.028703230     0.100000000     0.789851360 1 1 1
     0.041517170     0.100000000     0.803177860 1 1 1
     0.054331110     0.100000000     0.816504360 1 1 1
     0.067145050     0.100000000     0.829830860 1 1 1
     0.079959000     0.100000000     0.843157360 1 1 1
     0.092772940     0.100000000     0.856483850 1 1 1
     0.105586880     0.100000000     0.869810350 1 1 1
     0.118400820     0.100000000     0.883136850 1 1 1
     0.131214760     0.100000000     0.896463350 1 1 1
     0.144028700     0.100000000     0.909789850 1 1 1
     0.156842640     0.100000000     0.923116350 1 1 1
     0.169656590     0.100000000     0.936442850 1 1 1
     0.182470530     0.100000000     0.949769350 1 1 1
     0.195284470     0.100000000     0.963095850 1 1 1
     0.208098410     0.100000000     0.976422350 1 1 1
     0.220912350     0.100000000     0.989748850 1 1 1
     0.003587900     0.100000000     0.723731420 1 1 1
     0.016401850     0.100000000     0.737057920 1 1 1
     0.029215790     0.100000000     0.750384420 1 1 1
     0.042029730     0.100000000     0.763710920 1 1 1
     0.054843670     0.100000000     0.777037420 1 1 1
     0.067657610     0.100000000     0.790363920 1 1 1
     0.080471550     0.100000000     0.803690420 1 1 1
     0.093285490     0.100000000     0.817016910 1 1 1
     0.106099440     0.100000000     0.830343410 1 1 1
     0.118913380     0.100000000     0.843669910 1 1 1
     0.131727320     0.100000000     0.856996410 1 1 1
     0.144541260     0.100000000     0.870322910 1 1 1
     0.157355200     0.100000000     0.883649410 1 1 1
     0.170169140     0.100000000     0.896975910 1 1 1
     0.182983090     0.100000000     0.910302410 1 1 1
     0.195797030     0.100000000     0.923628910 1 1 1
     0.208610970     0.100000000     0.936955410 1 1 1
     0.221424910     0.100000000     0.950281910 1 1 1
     0.234238850     0.100000000     0.963608410 1 1 1
     0.247052790     0.100000000     0.976934910 1 1 1
     0.259866740     0.100000000     0.990261400 1 1 1
     0.004100460     0.100000000     0.684264480 1 1 1
     0.016914400     0.100000000     0.697590980 1 1 1
     0.029728340     0.100000000     0.710917480 1 1 1
     0.042542290     0.100000000     0.724243980 1 1 1
     0.055356230     0.100000000     0.737570480 1 1 1
     0.068170170     0.100000000     0.750896980 1 1 1
     0.080984110     0.100000000     0.764223480 1 1 1
     0.093798050     0.100000000     0.777549970 1 1 1
     0.106611990     0.100000000     0.790876470 1 1 1
     0.119425940     0.100000000     0.804202970 1 1 1
     0.132239880     0.100000000     0.817529470 1 1 1
     0.145053820     0.100000000     0.830855970 1 1 1
     0.157867760     0.100000000     0.844182470 1 1 1
     0.170681700     0.100000000     0.857508970 1 1 1
     0.183495640     0.100000000     0.870835470 1 1 1
     0.196309580     0.100000000     0.884161970 1 1 1
     0.209123530     0.100000000     0.897488470 1 1 1
     0.221937470     0.100000000     0.910814970 1 1 1
     0.234751410     0.100000000     0.924141470 1 1 1
     0.247565350     0.100000000     0.937467970 1 1 1
     0.260379290     0.100000000     0.950794460 1 1 1
     0.273193230     0.100000000     0.964120960 1 1 1
     0.286007180     0.100000000     0.977447460 1 1 1
     0.298821120     0.100000000     0.990773960 1 1 1
     0.004613020     0.100000000     0.644797540 1 1 1
     0.017426960     0.100000000     0.658124040 1 1 1
     0.030240900     0.100000000     0.671450540 1 1 1
     0.043054840     0.100000000     0.684777040 1 1 1
     0.055868790     0.100000000     0.698103540 1 1 1
     0.068682730     0.100000000     0.711430040 1 1 1
     0.081496670     0.100000000     0.724756540 1 1 1
     0.094310610     0.100000000     0.738083030 1 1 1
     0.107124550     0.100000000     0.751409530 1 1 1
     0.119938490     0.100000000     0.764736030 1 1 1
     0.132752430     0.100000000     0.778062530 1 1 1
     0.145566380     0.100000000     0.791389030 1 1 1
     0.158380320     0.100000000     0.804715530 1 1 1
     0.171194260     0.100000000     0.818042030 1 1 1
     0.184008200     0.100000000     0.831368530 1 1 1
     0.196822140     0.100000000     0.844695030 1 1 1
     0.209636080     0.100000000     0.858021530 1 1 1
     0.222450030     0.100000000     0.871348030 1 1 1
     0.235263970     0.100000000     0.884674530 1 1 1
     0.248077910     0.100000000     0.898001030 1 1 1
     0.260891850     0.100000000     0.911327520 1 1 1
     0.273705790     0.100000000     0.924654020 1 1 1
     0.286519730     0.100000000     0.937980520 1 1 1
     0.299333680     0.100000000     0.951307020 1 1 1
     0.312147620     0.100000000     0.964633520 1 1 1
     0.324961560     0.100000000     0.977960020 1 1 1
     0.337775500     0.100000000     0.991286520 1 1 1
     0.005125580     0.100000000     0.605330600 1 1 1
     0.017939520     0.100000000     0.618657100 1 1 1
     0.030753460     0.100000000     0.631983600 1 1 1
     0.043567400     0.100000000     0.645310100 1 1 1
     0.056381340     0.100000000     0.658636600 1 1 1
     0.069195280     0.100000000     0.671963100 1 1 1
     0.082009230     0.100000000     0.685289600 1 1 1
     0.094823170     0.100000000     0.698616090 1 1 1
     0.107637110     0.100000000     0.711942590 1 1 1
     0.120451050     0.100000000     0.725269090 1 1 1
     0.133264990     0.100000000     0.738595590 1 1 1
     0.146078930     0.100000000     0.751922090 1 1 1
     0.158892880     0.100000000     0.765248590 1 1 1
     0.171706820     0.100000000     0.778575090 1 1 1
     0.184520760     0.100000000     0.791901590 1 1 1
     0.197334700     0.100000000     0.805228090 1 1 1
     0.210148640     0.100000000     0.818554590 1 1 1
     0.222962580     0.100000000     0.831881090 1 1 1
     0.235776520     0.100000000     0.845207590 1 1 1
     0.248590470     0.100000000     0.858534090 1 1 1
     0.261404410     0.100000000     0.871860580 1 1 1
     0.274218350     0.100000000     0.885187080 1 1 1
     0.287032290     0.100000000     0.898513580 1 1 1
     0.299846230     0.100000000     0.911840080 1 1 1
     0.312660170     0.100000000     0.925166580 1 1 1
     0.325474120     0.100000000     0.938493080 1 1 1
     0.338288060     0.100000000     0.951819580 1 1 1
     0.351102000     0.100000000     0.965146080 1 1 1
     0.363915940     0.100000000     0.978472580 1 1 1
     0.376729880     0.100000000     0.991799080 1 1 1
     0.005638130     0.100000000     0.565863660 1 1 1
     0.018452080     0.100000000     0.579190160 1 1 1
     0.031266020     0.100000000     0.592516660 1 1 1
     0.044079960     0.100000000     0.605843160 1 1 1
     0.056893900     0.100000000     0.619169660 1 1 1
     0.069707840     0.100000000     0.632496160 1 1 1
     0.082521780     0.100000000     0.645822660 1 1 1
     0.095335730     0.100000000     0.659149150 1 1 1
     0.108149670     0.100000000     0.672475650 1 1 1
     0.120963610     0.100000000     0.685802150 1 1 1
     0.133777550     0.100000000     0.699128650 1 1 1
     0.146591490     0.100000000     0.712455150 1 1 1
     0.159405430     0.100000000     0.725781650 1 1 1
     0.172219370     0.100000000     0.739108150 1 1 1
     0.185033320     0.100000000     0.752434650 1 1 1
     0.197847260     0.100000000     0.765761150 1 1 1
     0.210661200     0.100000000     0.779087650 1 1 1
     0.223475140     0.100000000     0.792414150 1 1 1
     0.236289080     0.100000000     0.805740650 1 1 1
     0.249103020     0.100000000     0.819067150 1 1 1
     0.261916970     0.100000000     0.832393640 1 1 1
     0.274730910     0.100000000     0.845720140 1 1 1
     0.287544850     0.100000000     0.859046640 1 1 1
     0.300358790     0.100000000     0.872373140 1 1 1
     0.313172730     0.100000000     0.885699640 1 1 1
     0.325986670     0.100000000     0.899026140 1 1 1
     0.338800620     0.100000000     0.912352640 1 1 1
     0.351614560     0.100000000     0.925679140 1 1 1
     0.364428500     0.100000000     0.939005640 1 1 1
     0.377242440     0.100000000     0.952332140 1 1 1
     0.390056380     0.100000000     0.965658640 1 1 1
     0.402870320     0.100000000     0.978985140 1 1 1
     0.415684260     0.100000000     0.992311640 1 1 1
     0.006150690     0.100000000     0.526396720 1 1 1
     0.018964630     0.100000000     0.539723220 1 1 1
     0.031778580     0.100000000     0.553049720 1 1 1
     0.044592520     0.100000000     0.566376220 1 1 1
     0.057406460     0.100000000     0.579702720 1 1 1
     0.070220400     0.100000000     0.593029220 1 1 1
     0.083034340     0.100000000     0.606355720 1 1 1
     0.095848280     0.100000000     0.619682210 1 1 1
     0.108662220     0.100000000     0.633008710 1 1 1
     0.121476170     0.100000000     0.646335210 1 1 1
     0.134290110     0.100000000     0.659661710 1 1 1
     0.147104050     0.100000000     0.672988210 1 1 1
     0.159917990     0.100000000     0.686314710 1 1 1
     0.172731930     0.100000000     0.699641210 1 1 1
     0.185545870     0.100000000     0.712967710 1 1 1
     0.198359820     0.100000000     0.726294210 1 1 1
     0.211173760     0.100000000     0.739620710 1 1 1
     0.223987700     0.100000000     0.752947210 1 1 1
     0.236801640     0.100000000     0.766273710 1 1 1
     0.249615580     0.100000000     0.779600210 1 1 1
     0.262429520     0.100000000     0.792926700 1 1 1
     0.275243460     0.100000000     0.806253200 1 1 1
     0.288057410     0.100000000     0.819579700 1 1 1
     0.300871350     0.100000000     0.832906200 1 1 1
     0.313685290     0.100000000     0.846232700 1 1 1
     0.326499230     0.100000000     0.859559200 1 1 1
     0.339313170     0.100000000     0.872885700 1 1 1
     0.352127110     0.100000000     0.886212200 1 1 1
     0.364941060     0.100000000     0.899538700 1 1 1
     0.377755000     0.100000000     0.912865200 1 1 1
     0.390568940     0.100000000     0.926191700 1 1 1
     0.403382880     0.100000000     0.939518200 1 1 1
     0.416196820     0.100000000     0.952844700 1 1 1
     0.429010760     0.100000000     0.966171190 1 1 1
     0.441824710     0.100000000     0.979497690 1 1 1
     0.454638650     0.100000000     0.992824190 1 1 1
     0.006663250     0.100000000     0.486929780 1 1 1
     0.019477190     0.100000000     0.500256280 1 1 1
     0.032291130     0.100000000     0.513582780 1 1 1
     0.045105070     0.100000000     0.526909280 1 1 1
     0.057919020     0.100000000     0.540235780 1 1 1
     0.070732960     0.100000000     0.553562280 1 1 1
     0.083546900     0.100000000     0.566888770 1 1 1
     0.096360840     0.100000000     0.580215270 1 1 1
     0.109174780     0.100000000     0.593541770 1 1 1
     0.121988720     0.100000000     0.606868270 1 1 1
     0.134802670     0.100000000     0.620194770 1 1 1
     0.147616610     0.100000000     0.633521270 1 1 1
     0.160430550     0.100000000     0.646847770 1 1 1
     0.173244490     0.100000000     0.660174270 1 1 1
     0.186058430     0.100000000     0.673500770 1 1 1
     0.198872370     0.100000000     0.686827270 1 1 1
     0.211686310     0.100000000     0.700153770 1 1 1
     0.224500260     0.100000000     0.713480270 1 1 1
     0.237314200     0.100000000     0.726806770 1 1 1
     0.250128140     0.100000000     0.740133260 1 1 1
     0.262942080     0.100000000     0.753459760 1 1 1
     0.275756020     0.100000000     0.766786260 1 1 1
     0.288569960     0.100000000     0.780112760 1 1 1
     0.301383910     0.100000000     0.793439260 1 1 1
     0.314197850     0.100000000     0.806765760 1 1 1
     0.327011790     0.100000000     0.820092260 1 1 1
     0.339825730     0.100000000     0.833418760 1 1 1
     0.352639670     0.100000000     0.846745260 1 1 1
     0.365453610     0.100000000     0.860071760 1 1 1
     0.378267560     0.100000000     0.873398260 1 1 1
     0.391081500     0.100000000     0.886724760 1 1 1
     0.403895440     0.100000000     0.900051260 1 1 1
     0.416709380     0.100000000     0.913377750 1 1 1
     0.429523320     0.100000000     0.926704250 1 1 1
     0.442337260     0.100000000     0.940030750 1 1 1
     0.455151200     0.100000000     0.953357250 1 1 1
     0.467965150     0.100000000     0.966683750 1 1 1
     0.480779090     0.100000000     0.980010250 1 1 1
     0.493593030     0.100000000     0.993336750 1 1 1
     0.007175810     0.100000000     0.447462840 1 1 1
     0.019989750     0.100000000     0.460789340 1 1 1
     0.032803690     0.100000000     0.474115840 1 1 1
     0.045617630     0.100000000     0.487442340 1 1 1
     0.058431570     0.100000000     0.500768840 1 1 1
     0.071245520     0.100000000     0.514095340 1 1 1
     0.084059460     0.100000000     0.527421830 1 1 1
     0.096873400     0.100000000     0.540748330 1 1 1
     0.109687340     0.100000000     0.554074830 1 1 1
     0.122501280     0.100000000     0.567401330 1 1 1
     0.135315220     0.100000000     0.580727830 1 1 1
     0.148129160     0.100000000     0.594054330 1 1 1
     0.160943110     0.100000000     0.607380830 1 1 1
     0.173757050     0.100000000     0.620707330 1 1 1
     0.186570990     0.100000000     0.634033830 1 1 1
     0.199384930     0.100000000     0.647360330 1 1 1
     0.212198870     0.100000000     0.660686830 1 1 1
     0.225012810     0.100000000     0.674013330 1 1 1
     0.237826760     0.100000000     0.687339830 1 1 1
     0.250640700     0.100000000     0.700666320 1 1 1
     0.263454640     0.100000000     0.713992820 1 1 1
     0.276268580     0.100000000     0.727319320 1 1 1
     0.289082520     0.100000000     0.740645820 1 1 1
     0.301896460     0.100000000     0.753972320 1 1 1
     0.314710400     0.100000000     0.767298820 1 1 1
     0.327524350     0.100000000     0.780625320 1 1 1
     0.340338290     0.100000000     0.793951820 1 1 1
     0.353152230     0.100000000     0.807278320 1 1 1
     0.365966170     0.100000000     0.820604820 1 1 1
     0.378780110     0.100000000     0.833931320 1 1 1
     0.391594050     0.100000000     0.847257820 1 1 1
     0.404408000     0.100000000     0.860584320 1 1 1
     0.417221940     0.100000000     0.873910810 1 1 1
     0.430035880     0.100000000     0.887237310 1 1 1
     0.442849820     0.100000000     0.900563810 1 1 1
     0.455663760     0.100000000     0.913890310 1 1 1
     0.468477700     0.100000000     0.927216810 1 1 1
     0.481291650     0.100000000     0.940543310 1 1 1
     0.494105590     0.100000000     0.953869810 1 1 1
     0.506919530     0.100000000     0.967196310 1 1 1
     0.519733470     0.100000000     0.980522810 1 1 1
     0.532547410     0.100000000     0.993849310 1 1 1
     0.007688360     0.100000000     0.407995900 1 1 1
     0.020502310     0.100000000     0.421322400 1 1 1
     0.033316250     0.100000000     0.434648900 1 1 1
     0.046130190     0.100000000     0.447975400 1 1 1
     0.058944130     0.100000000     0.461301900 1 1 1
     0.071758070     0.100000000     0.474628400 1 1 1
     0.084572010     0.100000000     0.487954890 1 1 1
     0.097385960     0.100000000     0.501281390 1 1 1
     0.110199900     0.100000000     0.514607890 1 1 1
     0.123013840     0.100000000     0.527934390 1 1 1
     0.135827780     0.100000000     0.541260890 1 1 1
     0.148641720     0.100000000     0.554587390 1 1 1
     0.161455660     0.100000000     0.567913890 1 1 1
     0.174269610     0.100000000     0.581240390 1 1 1
     0.187083550     0.100000000     0.594566890 1 1 1
     0.199897490     0.100000000     0.607893390 1 1 1
     0.212711430     0.100000000     0.621219890 1 1 1
     0.225525370     0.100000000     0.634546390 1 1 1
     0.238339310     0.100000000     0.647872890 1 1 1
     0.251153250     0.100000000     0.661199380 1 1 1
     0.263967200     0.100000000     0.674525880 1 1 1
     0.276781140     0.100000000     0.687852380 1 1 1
     0.289595080     0.100000000     0.701178880 1 1 1
     0.302409020     0.100000000     0.714505380 1 1 1
     0.315222960     0.100000000     0.727831880 1 1 1
     0.328036900     0.100000000     0.741158380 1 1 1
     0.340850850     0.100000000     0.754484880 1 1 1
     0.353664790     0.100000000     0.767811380 1 1 1
     0.366478730     0.100000000     0.781137880 1 1 1
     0.379292670     0.100000000     0.794464380 1 1 1
     0.392106610     0.100000000     0.807790880 1 1 1
     0.404920550     0.100000000     0.821117380 1 1 1
     0.417734500     0.100000000     0.834443870 1 1 1
     0.430548440     0.100000000     0.847770370 1 1 1
     0.443362380     0.100000000     0.861096870 1 1 1
     0.456176320     0.100000000     0.874423370 1 1 1
     0.468990260     0.100000000     0.887749870 1 1 1
     0.481804200     0.100000000     0.901076370 1 1 1
     0.494618140     0.100000000     0.914402870 1 1 1
     0.507432090     0.100000000     0.927729370 1 1 1
     0.520246030     0.100000000     0.941055870 1 1 1
     0.533059970     0.100000000     0.954382370 1 1 1
     0.545873910     0.100000000     0.967708870 1 1 1
     0.558687850     0.100000000     0.981035370 1 1 1
     0.571501790     0.100000000     0.994361870 1 1 1
     0.008200920     0.100000000     0.368528960 1 1 1
     0.021014860     0.100000000     0.381855460 1 1 1
     0.033828810     0.100000000     0.395181960 1 1 1
     0.046642750     0.100000000     0.408508460 1 1 1
     0.059456690     0.100000000     0.421834960 1 1 1
     0.072270630     0.100000000     0.435161460 1 1 1
     0.085084570     0.100000000     0.448487950 1 1 1
     0.097898510     0.100000000     0.461814450 1 1 1
     0.110712460     0.100000000     0.475140950 1 1 1
     0.123526400     0.100000000     0.488467450 1 1 1
     0.136340340     0.100000000     0.501793950 1 1 1
     0.149154280     0.100000000     0.515120450 1 1 1
     0.161968220     0.100000000     0.528446950 1 1 1
     0.174782160     0.100000000     0.541773450 1 1 1
     0.187596100     0.100000000     0.555099950 1 1 1
     0.200410050     0.100000000     0.568426450 1 1 1
     0.213223990     0.100000000     0.581752950 1 1 1
     0.226037930     0.100000000     0.595079450 1 1 1
     0.238851870     0.100000000     0.608405950 1 1 1
     0.251665810     0.100000000     0.621732440 1 1 1
     0.264479750     0.100000000     0.635058940 1 1 1
     0.277293700     0.100000000     0.648385440 1 1 1
     0.290107640     0.100000000     0.661711940 1 1 1
     0.302921580     0.100000000     0.675038440 1 1 1
     0.315735520     0.100000000     0.688364940 1 1 1
     0.328549460     0.100000000     0.701691440 1 1 1
     0.341363400     0.100000000     0.715017940 1 1 1
     0.354177340     0.100000000     0.728344440 1 1 1
     0.366991290     0.100000000     0.741670940 1 1 1
     0.379805230     0.100000000     0.754997440 1 1 1
     0.392619170     0.100000000     0.768323940 1 1 1
     0.405433110     0.100000000     0.781650440 1 1 1
     0.418247050     0.100000000     0.794976930 1 1 1
     0.431060990     0.100000000     0.808303430 1 1 1
     0.443874940     0.100000000     0.821629930 1 1 1
     0.456688880     0.100000000     0.834956430 1 1 1
     0.469502820     0.100000000     0.848282930 1 1 1
     0.482316760     0.100000000     0.861609430 1 1 1
     0.495130700     0.100000000     0.874935930 1 1 1
     0.507944640     0.100000000     0.888262430 1 1 1
     0.520758590     0.100000000     0.901588930 1 1 1
     0.533572530     0.100000000     0.914915430 1 1 1
     0.546386470     0.100000000     0.928241930 1 1 1
     0.559200410     0.100000000     0.941568430 1 1 1
     0.572014350     0.100000000     0.954894930 1 1 1
     0.584828290     0.100000000     0.968221420 1 1 1
     0.597642230     0.100000000     0.981547920 1 1 1
     0.610456180     0.100000000     0.994874420 1 1 1
     0.008713480     0.100000000     0.329062020 1 1 1
     0.021527420     0.100000000     0.342388520 1 1 1
     0.034341360     0.100000000     0.355715020 1 1 1
     0.047155300     0.100000000     0.369041520 1 1 1
     0.059969250     0.100000000     0.382368020 1 1 1
     0.072783190     0.100000000     0.395694520 1 1 1
     0.085597130     0.100000000     0.409021010 1 1 1
     0.098411070     0.100000000     0.422347510 1 1 1
     0.111225010     0.100000000     0.435674010 1 1 1
     0.124038950     0.100000000     0.449000510 1 1 1
     0.136852900     0.100000000     0.462327010 1 1 1
     0.149666840     0.100000000     0.475653510 1 1 1
     0.162480780     0.100000000     0.488980010 1 1 1
     0.175294720     0.100000000     0.502306510 1 1 1
     0.188108660     0.100000000     0.515633010 1 1 1
     0.200922600     0.100000000     0.528959510 1 1 1
     0.213736550     0.100000000     0.542286010 1 1 1
     0.226550490     0.100000000     0.555612510 1 1 1
     0.239364430     0.100000000     0.568939010 1 1 1
     0.252178370     0.100000000     0.582265500 1 1 1
     0.264992310     0.100000000     0.595592000 1 1 1
     0.277806250     0.100000000     0.608918500 1 1 1
     0.290620190     0.100000000     0.622245000 1 1 1
     0.303434140     0.100000000     0.635571500 1 1 1
     0.316248080     0.100000000     0.648898000 1 1 1
     0.329062020     0.100000000     0.662224500 1 1 1
     0.341875960     0.100000000     0.675551000 1 1 1
     0.354689900     0.100000000     0.688877500 1 1 1
     0.367503840     0.100000000     0.702204000 1 1 1
     0.380317790     0.100000000     0.715530500 1 1 1
     0.393131730     0.100000000     0.728857000 1 1 1
     0.405945670     0.100000000     0.742183500 1 1 1
     0.418759610     0.100000000     0.755509990 1 1 1
     0.431573550     0.100000000     0.768836490 1 1 1
     0.444387490     0.100000000     0.782162990 1 1 1
     0.457201440     0.100000000     0.795489490 1 1 1
     0.470015380     0.100000000     0.808815990 1 1 1
     0.482829320     0.100000000     0.822142490 1 1 1
     0.495643260     0.100000000     0.835468990 1 1 1
     0.508457200     0.100000000     0.848795490 1 1 1
     0.521271140     0.100000000     0.862121990 1 1 1
     0.534085080     0.100000000     0.875448490 1 1 1
     0.546899030     0.100000000     0.888774990 1 1 1
     0.559712970     0.100000000     0.902101490 1 1 1
     0.572526910     0.100000000     0.915427990 1 1 1
     0.585340850     0.100000000     0.928754480 1 1 1
     0.598154790     0.100000000     0.942080980 1 1 1
     0.610968730     0.100000000     0.955407480 1 1 1
     0.623782680     0.100000000     0.968733980 1 1 1
     0.636596620     0.100000000     0.982060480 1 1 1
     0.649410560     0.100000000     0.995386980 1 1 1
     0.009226040     0.100000000     0.289595080 1 1 1
     0.022039980     0.100000000     0.302921580 1 1 1
     0.034853920     0.100000000     0.316248080 1 1 1
     0.047667860     0.100000000     0.329574580 1 1 1
     0.060481800     0.100000000     0.342901080 1 1 1
     0.073295750     0.100000000     0.356227580 1 1 1
     0.086109690     0.100000000     0.369554070 1 1 1
     0.098923630     0.100000000     0.382880570 1 1 1
     0.111737570     0.100000000     0.396207070 1 1 1
     0.124551510     0.100000000     0.409533570 1 1 1
     0.137365450     0.100000000     0.422860070 1 1 1
     0.150179400     0.100000000     0.436186570 1 1 1
     0.162993340     0.100000000     0.449513070 1 1 1
     0.175807280     0.100000000     0.462839570 1 1 1
     0.188621220     0.100000000     0.476166070 1 1 1
     0.201435160     0.100000000     0.489492570 1 1 1
     0.214249100     0.100000000     0.502819070 1 1 1
     0.227063040     0.100000000     0.516145570 1 1 1
     0.239876990     0.100000000     0.529472070 1 1 1
     0.252690930     0.100000000     0.542798560 1 1 1
     0.265504870     0.100000000     0.556125060 1 1 1
     0.278318810     0.100000000     0.569451560 1 1 1
     0.291132750     0.100000000     0.582778060 1 1 1
     0.303946690     0.100000000     0.596104560 1 1 1
     0.316760640     0.100000000     0.609431060 1 1 1
     0.329574580     0.100000000     0.622757560 1 1 1
     0.342388520     0.100000000     0.636084060 1 1 1
     0.355202460     0.100000000     0.649410560 1 1 1
     0.368016400     0.100000000     0.662737060 1 1 1
     0.380830340     0.100000000     0.676063560 1 1 1
     0.393644280     0.100000000     0.689390060 1 1 1
     0.406458230     0.100000000     0.702716560 1 1 1
     0.419272170     0.100000000     0.716043050 1 1 1
     0.432086110     0.100000000     0.729369550 1 1 1
     0.444900050     0.100000000     0.742696050 1 1 1
     0.457713990     0.100000000     0.756022550 1 1 1
     0.470527930     0.100000000     0.769349050 1 1 1
     0.483341880     0.100000000     0.782675550 1 1 1
     0.496155820     0.100000000     0.796002050 1 1 1
     0.508969760     0.100000000     0.809328550 1 1 1
     0.521783700     0.100000000     0.822655050 1 1 1
     0.534597640     0.100000000     0.835981550 1 1 1
     0.547411580     0.100000000     0.849308050 1 1 1
     0.560225530     0.100000000     0.862634550 1 1 1
     0.573039470     0.100000000     0.875961050 1 1 1
     0.585853410     0.100000000     0.889287540 1 1 1
     0.598667350     0.100000000     0.902614040 1 1 1
     0.611481290     0.100000000     0.915940540 1 1 1
     0.624295230     0.100000000     0.929267040 1 1 1
     0.637109170     0.100000000     0.942593540 1 1 1
     0.649923120     0.100000000     0.955920040 1 1 1
     0.662737060     0.100000000     0.969246540 1 1 1
     0.675551000     0.100000000     0.982573040 1 1 1
     0.688364940     0.100000000     0.995899540 1 1 1
     0.009738600     0.100000000     0.250128140 1 1 1
     0.022552540     0.100000000     0.263454640 1 1 1
     0.035366480     0.100000000     0.276781140 1 1 1
     0.048180420     0.100000000     0.290107640 1 1 1
     0.060994360     0.100000000     0.303434140 1 1 1
     0.073808300     0.100000000     0.316760640 1 1 1
     0.086622250     0.100000000     0.330087130 1 1 1
     0.099436190     0.100000000     0.343413630 1 1 1
     0.112250130     0.100000000     0.356740130 1 1 1
     0.125064070     0.100000000     0.370066630 1 1 1
     0.137878010     0.100000000     0.383393130 1 1 1
     0.150691950     0.100000000     0.396719630 1 1 1
     0.163505890     0.100000000     0.410046130 1 1 1
     0.176319840     0.100000000     0.423372630 1 1 1
     0.189133780     0.100000000     0.436699130 1 1 1
     0.201947720     0.100000000     0.450025630 1 1 1
     0.214761660     0.100000000     0.463352130 1 1 1
     0.227575600     0.100000000     0.476678630 1 1 1
     0.240389540     0.100000000     0.490005130 1 1 1
     0.253203490     0.100000000     0.503331620 1 1 1
     0.266017430     0.100000000     0.516658120 1 1 1
     0.278831370     0.100000000     0.529984620 1 1 1
     0.291645310     0.100000000     0.543311120 1 1 1
     0.304459250     0.100000000     0.556637620 1 1 1
     0.317273190     0.100000000     0.569964120 1 1 1
     0.330087130     0.100000000     0.583290620 1 1 1