ATOMIC_SPECIES
C 6.000 /mnt/C_ONCV_PBE-1.0.upf

NUMERICAL_ORBITAL
/mnt/C_gga_8au_100Ry_2s2p1d.orb

LATTICE_CONSTANT
1.889716

LATTICE_VECTORS
       54.10900000       29.81985273       0.00000000
       1.22975000       61.76969494       0.00000000
       0.00000000       0.00000000       30.00000000

ATOMIC_POSITIONS
Direct

C
0.0
2524
     0.00158479     0.93026941     0.10000000 1 1 1
     0.02377179     0.95404120     0.10000000 1 1 1
     0.04595880     0.97781300     0.10000000 1 1 1
     0.00316957     0.86053883     0.10000000 1 1 1
     0.02535658     0.88431062     0.10000000 1 1 1
     0.04754358     0.90808241     0.10000000 1 1 1
     0.06973059     0.93185420     0.10000000 1 1 1
     0.09191759     0.95562599     0.10000000 1 1 1
     0.11410460     0.97939778     0.10000000 1 1 1
     0.00475436     0.79080824     0.10000000 1 1 1
     0.02694136     0.81458003     0.10000000 1 1 1
     0.04912837     0.83835182     0.10000000 1 1 1
     0.07131537     0.86212361     0.10000000 1 1 1
     0.09350238     0.88589540     0.10000000 1 1 1
     0.11568938     0.90966719     0.10000000 1 1 1
     0.13787639     0.93343899     0.10000000 1 1 1
     0.16006339     0.95721078     0.10000000 1 1 1
     0.18225040     0.98098257     0.10000000 1 1 1
     0.00633914     0.72107765     0.10000000 1 1 1
     0.02852615     0.74484945     0.10000000 1 1 1
     0.05071315     0.76862124     0.10000000 1 1 1
     0.07290016     0.79239303     0.10000000 1 1 1
     0.09508716     0.81616482     0.10000000 1 1 1
     0.11727417     0.83993661     0.10000000 1 1 1
     0.13946117     0.86370840     0.10000000 1 1 1
     0.16164818     0.88748019     0.10000000 1 1 1
     0.18383518     0.91125198     0.10000000 1 1 1
     0.20602219     0.93502377     0.10000000 1 1 1
     0.22820919     0.95879556     0.10000000 1 1 1
     0.25039620     0.98256735     0.10000000 1 1 1
     0.00792393     0.65134707     0.10000000 1 1 1
     0.03011094     0.67511886     0.10000000 1 1 1
     0.05229794     0.69889065     0.10000000 1 1 1
     0.07448494     0.72266244     0.10000000 1 1 1
     0.09667195     0.74643423     0.10000000 1 1 1
     0.11885895     0.77020602     0.10000000 1 1 1
     0.14104596     0.79397781     0.10000000 1 1 1
     0.16323296     0.81774960     0.10000000 1 1 1
     0.18541997     0.84152139     0.10000000 1 1 1
     0.20760697     0.86529319     0.10000000 1 1 1
     0.22979398     0.88906498     0.10000000 1 1 1
     0.25198098     0.91283677     0.10000000 1 1 1
     0.27416799     0.93660856     0.10000000 1 1 1
     0.29635499     0.96038035     0.10000000 1 1 1
     0.31854200     0.98415214     0.10000000 1 1 1
     0.00950872     0.58161648     0.10000000 1 1 1
     0.03169572     0.60538827     0.10000000 1 1 1
     0.05388273     0.62916006     0.10000000 1 1 1
     0.07606973     0.65293185     0.10000000 1 1 1
     0.09825674     0.67670365     0.10000000 1 1 1
     0.12044374     0.70047544     0.10000000 1 1 1
     0.14263074     0.72424723     0.10000000 1 1 1
     0.16481775     0.74801902     0.10000000 1 1 1
     0.18700475     0.77179081     0.10000000 1 1 1
     0.20919176     0.79556260     0.10000000 1 1 1
     0.23137876     0.81933439     0.10000000 1 1 1
     0.25356577     0.84310618     0.10000000 1 1 1
     0.27575277     0.86687797     0.10000000 1 1 1
     0.29793978     0.89064976     0.10000000 1 1 1
     0.32012678     0.91442155     0.10000000 1 1 1
     0.34231379     0.93819334     0.10000000 1 1 1
     0.36450079     0.96196513     0.10000000 1 1 1
     0.38668780     0.98573693     0.10000000 1 1 1
     0.01109350     0.51188590     0.10000000 1 1 1
     0.03328051     0.53565769     0.10000000 1 1 1
     0.05546751     0.55942948     0.10000000 1 1 1
     0.07765452     0.58320127     0.10000000 1 1 1
     0.09984152     0.60697306     0.10000000 1 1 1
     0.12202853     0.63074485     0.10000000 1 1 1
     0.14421553     0.65451664     0.10000000 1 1 1
     0.16640254     0.67828843     0.10000000 1 1 1
     0.18858954     0.70206022     0.10000000 1 1 1
     0.21077655     0.72583201     0.10000000 1 1 1
     0.23296355     0.74960380     0.10000000 1 1 1
     0.25515055     0.77337559     0.10000000 1 1 1
     0.27733756     0.79714739     0.10000000 1 1 1
     0.29952456     0.82091918     0.10000000 1 1 1
     0.32171157     0.84469097     0.10000000 1 1 1
     0.34389857     0.86846276     0.10000000 1 1 1
     0.36608558     0.89223455     0.10000000 1 1 1
     0.38827258     0.91600634     0.10000000 1 1 1
     0.41045959     0.93977813     0.10000000 1 1 1
     0.43264659     0.96354992     0.10000000 1 1 1
     0.45483360     0.98732171     0.10000000 1 1 1
     0.01267829     0.44215531     0.10000000 1 1 1
     0.03486529     0.46592710     0.10000000 1 1 1
     0.05705230     0.48969889     0.10000000 1 1 1
     0.07923930     0.51347068     0.10000000 1 1 1
     0.10142631     0.53724247     0.10000000 1 1 1
     0.12361331     0.56101426     0.10000000 1 1 1
     0.14580032     0.58478605     0.10000000 1 1 1
     0.16798732     0.60855784     0.10000000 1 1 1
     0.19017433     0.63232964     0.10000000 1 1 1
     0.21236133     0.65610143     0.10000000 1 1 1
     0.23454834     0.67987322     0.10000000 1 1 1
     0.25673534     0.70364501     0.10000000 1 1 1
     0.27892235     0.72741680     0.10000000 1 1 1
     0.30110935     0.75118859     0.10000000 1 1 1
     0.32329635     0.77496038     0.10000000 1 1 1
     0.34548336     0.79873217     0.10000000 1 1 1
     0.36767036     0.82250396     0.10000000 1 1 1
     0.38985737     0.84627575     0.10000000 1 1 1
     0.41204437     0.87004754     0.10000000 1 1 1
     0.43423138     0.89381933     0.10000000 1 1 1
     0.45641838     0.91759113     0.10000000 1 1 1
     0.47860539     0.94136292     0.10000000 1 1 1
     0.50079239     0.96513471     0.10000000 1 1 1
     0.52297940     0.98890650     0.10000000 1 1 1
     0.01426307     0.37242472     0.10000000 1 1 1
     0.03645008     0.39619651     0.10000000 1 1 1
     0.05863708     0.41996830     0.10000000 1 1 1
     0.08082409     0.44374010     0.10000000 1 1 1
     0.10301109     0.46751189     0.10000000 1 1 1
     0.12519810     0.49128368     0.10000000 1 1 1
     0.14738510     0.51505547     0.10000000 1 1 1
     0.16957211     0.53882726     0.10000000 1 1 1
     0.19175911     0.56259905     0.10000000 1 1 1
     0.21394612     0.58637084     0.10000000 1 1 1
     0.23613312     0.61014263     0.10000000 1 1 1
     0.25832013     0.63391442     0.10000000 1 1 1
     0.28050713     0.65768621     0.10000000 1 1 1
     0.30269414     0.68145800     0.10000000 1 1 1
     0.32488114     0.70522979     0.10000000 1 1 1
     0.34706815     0.72900158     0.10000000 1 1 1
     0.36925515     0.75277338     0.10000000 1 1 1
     0.39144216     0.77654517     0.10000000 1 1 1
     0.41362916     0.80031696     0.10000000 1 1 1
     0.43581616     0.82408875     0.10000000 1 1 1
     0.45800317     0.84786054     0.10000000 1 1 1
     0.48019017     0.87163233     0.10000000 1 1 1
     0.50237718     0.89540412     0.10000000 1 1 1
     0.52456418     0.91917591     0.10000000 1 1 1
     0.54675119     0.94294770     0.10000000 1 1 1
     0.56893819     0.96671949     0.10000000 1 1 1
     0.59112520     0.99049128     0.10000000 1 1 1
     0.01584786     0.30269414     0.10000000 1 1 1
     0.03803487     0.32646593     0.10000000 1 1 1
     0.06022187     0.35023772     0.10000000 1 1 1
     0.08240887     0.37400951     0.10000000 1 1 1
     0.10459588     0.39778130     0.10000000 1 1 1
     0.12678288     0.42155309     0.10000000 1 1 1
     0.14896989     0.44532488     0.10000000 1 1 1
     0.17115689     0.46909667     0.10000000 1 1 1
     0.19334390     0.49286846     0.10000000 1 1 1
     0.21553090     0.51664025     0.10000000 1 1 1
     0.23771791     0.54041204     0.10000000 1 1 1
     0.25990491     0.56418384     0.10000000 1 1 1
     0.28209192     0.58795563     0.10000000 1 1 1
     0.30427892     0.61172742     0.10000000 1 1 1
     0.32646593     0.63549921     0.10000000 1 1 1
     0.34865293     0.65927100     0.10000000 1 1 1
     0.37083994     0.68304279     0.10000000 1 1 1
     0.39302694     0.70681458     0.10000000 1 1 1
     0.41521395     0.73058637     0.10000000 1 1 1
     0.43740095     0.75435816     0.10000000 1 1 1
     0.45958796     0.77812995     0.10000000 1 1 1
     0.48177496     0.80190174     0.10000000 1 1 1
     0.50396197     0.82567353     0.10000000 1 1 1
     0.52614897     0.84944532     0.10000000 1 1 1
     0.54833597     0.87321712     0.10000000 1 1 1
     0.57052298     0.89698891     0.10000000 1 1 1
     0.59270998     0.92076070     0.10000000 1 1 1
     0.61489699     0.94453249     0.10000000 1 1 1
     0.63708399     0.96830428     0.10000000 1 1 1
     0.65927100     0.99207607     0.10000000 1 1 1
     0.01743265     0.23296355     0.10000000 1 1 1
     0.03961965     0.25673534     0.10000000 1 1 1
     0.06180666     0.28050713     0.10000000 1 1 1
     0.08399366     0.30427892     0.10000000 1 1 1
     0.10618067     0.32805071     0.10000000 1 1 1
     0.12836767     0.35182250     0.10000000 1 1 1
     0.15055468     0.37559429     0.10000000 1 1 1
     0.17274168     0.39936609     0.10000000 1 1 1
     0.19492868     0.42313788     0.10000000 1 1 1
     0.21711569     0.44690967     0.10000000 1 1 1
     0.23930269     0.47068146     0.10000000 1 1 1
     0.26148970     0.49445325     0.10000000 1 1 1
     0.28367670     0.51822504     0.10000000 1 1 1
     0.30586371     0.54199683     0.10000000 1 1 1
     0.32805071     0.56576862     0.10000000 1 1 1
     0.35023772     0.58954041     0.10000000 1 1 1
     0.37242472     0.61331220     0.10000000 1 1 1
     0.39461173     0.63708399     0.10000000 1 1 1
     0.41679873     0.66085578     0.10000000 1 1 1
     0.43898574     0.68462758     0.10000000 1 1 1
     0.46117274     0.70839937     0.10000000 1 1 1
     0.48335975     0.73217116     0.10000000 1 1 1
     0.50554675     0.75594295     0.10000000 1 1 1
     0.52773376     0.77971474     0.10000000 1 1 1
     0.54992076     0.80348653     0.10000000 1 1 1
     0.57210777     0.82725832     0.10000000 1 1 1
     0.59429477     0.85103011     0.10000000 1 1 1
     0.61648177     0.87480190     0.10000000 1 1 1
     0.63866878     0.89857369     0.10000000 1 1 1
     0.66085578     0.92234548     0.10000000 1 1 1
     0.68304279     0.94611727     0.10000000 1 1 1
     0.70522979     0.96988906     0.10000000 1 1 1
     0.72741680     0.99366086     0.10000000 1 1 1
     0.01901743     0.16323296     0.10000000 1 1 1
     0.04120444     0.18700475     0.10000000 1 1 1
     0.06339144     0.21077655     0.10000000 1 1 1
     0.08557845     0.23454834     0.10000000 1 1 1
     0.10776545     0.25832013     0.10000000 1 1 1
     0.12995246     0.28209192     0.10000000 1 1 1
     0.15213946     0.30586371     0.10000000 1 1 1
     0.17432647     0.32963550     0.10000000 1 1 1
     0.19651347     0.35340729     0.10000000 1 1 1
     0.21870048     0.37717908     0.10000000 1 1 1
     0.24088748     0.40095087     0.10000000 1 1 1
     0.26307448     0.42472266     0.10000000 1 1 1
     0.28526149     0.44849445     0.10000000 1 1 1
     0.30744849     0.47226624     0.10000000 1 1 1
     0.32963550     0.49603803     0.10000000 1 1 1
     0.35182250     0.51980983     0.10000000 1 1 1
     0.37400951     0.54358162     0.10000000 1 1 1
     0.39619651     0.56735341     0.10000000 1 1 1
     0.41838352     0.59112520     0.10000000 1 1 1
     0.44057052     0.61489699     0.10000000 1 1 1
     0.46275753     0.63866878     0.10000000 1 1 1
     0.48494453     0.66244057     0.10000000 1 1 1
     0.50713154     0.68621236     0.10000000 1 1 1
     0.52931854     0.70998415     0.10000000 1 1 1
     0.55150555     0.73375594     0.10000000 1 1 1
     0.57369255     0.75752773     0.10000000 1 1 1
     0.59587956     0.78129952     0.10000000 1 1 1
     0.61806656     0.80507132     0.10000000 1 1 1
     0.64025357     0.82884311     0.10000000 1 1 1
     0.66244057     0.85261490     0.10000000 1 1 1
     0.68462758     0.87638669     0.10000000 1 1 1
     0.70681458     0.90015848     0.10000000 1 1 1
     0.72900158     0.92393027     0.10000000 1 1 1
     0.75118859     0.94770206     0.10000000 1 1 1
     0.77337559     0.97147385     0.10000000 1 1 1
     0.79556260     0.99524564     0.10000000 1 1 1
     0.02060222     0.09350238     0.10000000 1 1 1
     0.04278922     0.11727417     0.10000000 1 1 1
     0.06497623     0.14104596     0.10000000 1 1 1
     0.08716323     0.16481775     0.10000000 1 1 1
     0.10935024     0.18858954     0.10000000 1 1 1
     0.13153724     0.21236133     0.10000000 1 1 1
     0.15372425     0.23613312     0.10000000 1 1 1
     0.17591125     0.25990491     0.10000000 1 1 1
     0.19809826     0.28367670     0.10000000 1 1 1
     0.22028526     0.30744849     0.10000000 1 1 1
     0.24247227     0.33122029     0.10000000 1 1 1
     0.26465927     0.35499208     0.10000000 1 1 1
     0.28684628     0.37876387     0.10000000 1 1 1
     0.30903328     0.40253566     0.10000000 1 1 1
     0.33122029     0.42630745     0.10000000 1 1 1
     0.35340729     0.45007924     0.10000000 1 1 1
     0.37559429     0.47385103     0.10000000 1 1 1
     0.39778130     0.49762282     0.10000000 1 1 1
     0.41996830     0.52139461     0.10000000 1 1 1
     0.44215531     0.54516640     0.10000000 1 1 1
     0.46434231     0.56893819     0.10000000 1 1 1
     0.48652932     0.59270998     0.10000000 1 1 1
     0.50871632     0.61648177     0.10000000 1 1 1
     0.53090333     0.64025357     0.10000000 1 1 1
     0.55309033     0.66402536     0.10000000 1 1 1
     0.57527734     0.68779715     0.10000000 1 1 1
     0.59746434     0.71156894     0.10000000 1 1 1
     0.61965135     0.73534073     0.10000000 1 1 1
     0.64183835     0.75911252     0.10000000 1 1 1
     0.66402536     0.78288431     0.10000000 1 1 1
     0.68621236     0.80665610     0.10000000 1 1 1
     0.70839937     0.83042789     0.10000000 1 1 1
     0.73058637     0.85419968     0.10000000 1 1 1
     0.75277338     0.87797147     0.10000000 1 1 1
     0.77496038     0.90174326     0.10000000 1 1 1
     0.79714739     0.92551506     0.10000000 1 1 1
     0.81933439     0.94928685     0.10000000 1 1 1
     0.84152139     0.97305864     0.10000000 1 1 1
     0.86370840     0.99683043     0.10000000 1 1 1
     0.00000000     0.00000000     0.10000000 1 1 1
     0.02218700     0.02377179     0.10000000 1 1 1
     0.04437401     0.04754358     0.10000000 1 1 1
     0.06656101     0.07131537     0.10000000 1 1 1
     0.08874802     0.09508716     0.10000000 1 1 1
     0.11093502     0.11885895     0.10000000 1 1 1
     0.13312203     0.14263074     0.10000000 1 1 1
     0.15530903     0.16640254     0.10000000 1 1 1
     0.17749604     0.19017433     0.10000000 1 1 1
     0.19968304     0.21394612     0.10000000 1 1 1
     0.22187005     0.23771791     0.10000000 1 1 1
     0.24405705     0.26148970     0.10000000 1 1 1
     0.26624406     0.28526149     0.10000000 1 1 1
     0.28843106     0.30903328     0.10000000 1 1 1
     0.31061807     0.33280507     0.10000000 1 1 1
     0.33280507     0.35657686     0.10000000 1 1 1
     0.35499208     0.38034865     0.10000000 1 1 1
     0.37717908     0.40412044     0.10000000 1 1 1
     0.39936609     0.42789223     0.10000000 1 1 1
     0.42155309     0.45166403     0.10000000 1 1 1
     0.44374010     0.47543582     0.10000000 1 1 1
     0.46592710     0.49920761     0.10000000 1 1 1
     0.48811410     0.52297940     0.10000000 1 1 1
     0.51030111     0.54675119     0.10000000 1 1 1
     0.53248811     0.57052298     0.10000000 1 1 1
     0.55467512     0.59429477     0.10000000 1 1 1
     0.57686212     0.61806656     0.10000000 1 1 1
     0.59904913     0.64183835     0.10000000 1 1 1
     0.62123613     0.66561014     0.10000000 1 1 1
     0.64342314     0.68938193     0.10000000 1 1 1
     0.66561014     0.71315372     0.10000000 1 1 1
     0.68779715     0.73692552     0.10000000 1 1 1
     0.70998415     0.76069731     0.10000000 1 1 1
     0.73217116     0.78446910     0.10000000 1 1 1
     0.75435816     0.80824089     0.10000000 1 1 1
     0.77654517     0.83201268     0.10000000 1 1 1
     0.79873217     0.85578447     0.10000000 1 1 1
     0.82091918     0.87955626     0.10000000 1 1 1
     0.84310618     0.90332805     0.10000000 1 1 1
     0.86529319     0.92709984     0.10000000 1 1 1
     0.88748019     0.95087163     0.10000000 1 1 1
     0.90966719     0.97464342     0.10000000 1 1 1
     0.93185420     0.99841521     0.10000000 1 1 1
     0.06814580     0.00158479     0.10000000 1 1 1
     0.09033281     0.02535658     0.10000000 1 1 1
     0.11251981     0.04912837     0.10000000 1 1 1
     0.13470681     0.07290016     0.10000000 1 1 1
     0.15689382     0.09667195     0.10000000 1 1 1
     0.17908082     0.12044374     0.10000000 1 1 1
     0.20126783     0.14421553     0.10000000 1 1 1
     0.22345483     0.16798732     0.10000000 1 1 1
     0.24564184     0.19175911     0.10000000 1 1 1
     0.26782884     0.21553090     0.10000000 1 1 1
     0.29001585     0.23930269     0.10000000 1 1 1
     0.31220285     0.26307448     0.10000000 1 1 1
     0.33438986     0.28684628     0.10000000 1 1 1
     0.35657686     0.31061807     0.10000000 1 1 1
     0.37876387     0.33438986     0.10000000 1 1 1
     0.40095087     0.35816165     0.10000000 1 1 1
     0.42313788     0.38193344     0.10000000 1 1 1
     0.44532488     0.40570523     0.10000000 1 1 1
     0.46751189     0.42947702     0.10000000 1 1 1
     0.48969889     0.45324881     0.10000000 1 1 1
     0.51188590     0.47702060     0.10000000 1 1 1
     0.53407290     0.50079239     0.10000000 1 1 1
     0.55625990     0.52456418     0.10000000 1 1 1
     0.57844691     0.54833597     0.10000000 1 1 1
     0.60063391     0.57210777     0.10000000 1 1 1
     0.62282092     0.59587956     0.10000000 1 1 1
     0.64500792     0.61965135     0.10000000 1 1 1
     0.66719493     0.64342314     0.10000000 1 1 1
     0.68938193     0.66719493     0.10000000 1 1 1
     0.71156894     0.69096672     0.10000000 1 1 1
     0.73375594     0.71473851     0.10000000 1 1 1
     0.75594295     0.73851030     0.10000000 1 1 1
     0.77812995     0.76228209     0.10000000 1 1 1
     0.80031696     0.78605388     0.10000000 1 1 1
     0.82250396     0.80982567     0.10000000 1 1 1
     0.84469097     0.83359746     0.10000000 1 1 1
     0.86687797     0.85736926     0.10000000 1 1 1
     0.88906498     0.88114105     0.10000000 1 1 1
     0.91125198     0.90491284     0.10000000 1 1 1
     0.93343899     0.92868463     0.10000000 1 1 1
     0.95562599     0.95245642     0.10000000 1 1 1
     0.97781300     0.97622821     0.10000000 1 1 1
     0.13629160     0.00316957     0.10000000 1 1 1
     0.15847861     0.02694136     0.10000000 1 1 1
     0.18066561     0.05071315     0.10000000 1 1 1
     0.20285261     0.07448494     0.10000000 1 1 1
     0.22503962     0.09825674     0.10000000 1 1 1
     0.24722662     0.12202853     0.10000000 1 1 1
     0.26941363     0.14580032     0.10000000 1 1 1
     0.29160063     0.16957211     0.10000000 1 1 1
     0.31378764     0.19334390     0.10000000 1 1 1
     0.33597464     0.21711569     0.10000000 1 1 1
     0.35816165     0.24088748     0.10000000 1 1 1
     0.38034865     0.26465927     0.10000000 1 1 1
     0.40253566     0.28843106     0.10000000 1 1 1
     0.42472266     0.31220285     0.10000000 1 1 1
     0.44690967     0.33597464     0.10000000 1 1 1
     0.46909667     0.35974643     0.10000000 1 1 1
     0.49128368     0.38351823     0.10000000 1 1 1
     0.51347068     0.40729002     0.10000000 1 1 1
     0.53565769     0.43106181     0.10000000 1 1 1
     0.55784469     0.45483360     0.10000000 1 1 1
     0.58003170     0.47860539     0.10000000 1 1 1
     0.60221870     0.50237718     0.10000000 1 1 1
     0.62440571     0.52614897     0.10000000 1 1 1
     0.64659271     0.54992076     0.10000000 1 1 1
     0.66877971     0.57369255     0.10000000 1 1 1
     0.69096672     0.59746434     0.10000000 1 1 1
     0.71315372     0.62123613     0.10000000 1 1 1
     0.73534073     0.64500792     0.10000000 1 1 1
     0.75752773     0.66877971     0.10000000 1 1 1
     0.77971474     0.69255151     0.10000000 1 1 1
     0.80190174     0.71632330     0.10000000 1 1 1
     0.82408875     0.74009509     0.10000000 1 1 1
     0.84627575     0.76386688     0.10000000 1 1 1
     0.86846276     0.78763867     0.10000000 1 1 1
     0.89064976     0.81141046     0.10000000 1 1 1
     0.91283677     0.83518225     0.10000000 1 1 1
     0.93502377     0.85895404     0.10000000 1 1 1
     0.95721078     0.88272583     0.10000000 1 1 1
     0.97939778     0.90649762     0.10000000 1 1 1
     0.20443740     0.00475436     0.10000000 1 1 1
     0.22662441     0.02852615     0.10000000 1 1 1
     0.24881141     0.05229794     0.10000000 1 1 1
     0.27099842     0.07606973     0.10000000 1 1 1
     0.29318542     0.09984152     0.10000000 1 1 1
     0.31537242     0.12361331     0.10000000 1 1 1
     0.33755943     0.14738510     0.10000000 1 1 1
     0.35974643     0.17115689     0.10000000 1 1 1
     0.38193344     0.19492868     0.10000000 1 1 1
     0.40412044     0.21870048     0.10000000 1 1 1
     0.42630745     0.24247227     0.10000000 1 1 1
     0.44849445     0.26624406     0.10000000 1 1 1
     0.47068146     0.29001585     0.10000000 1 1 1
     0.49286846     0.31378764     0.10000000 1 1 1
     0.51505547     0.33755943     0.10000000 1 1 1
     0.53724247     0.36133122     0.10000000 1 1 1
     0.55942948     0.38510301     0.10000000 1 1 1
     0.58161648     0.40887480     0.10000000 1 1 1
     0.60380349     0.43264659     0.10000000 1 1 1
     0.62599049     0.45641838     0.10000000 1 1 1
     0.64817750     0.48019017     0.10000000 1 1 1
     0.67036450     0.50396197     0.10000000 1 1 1
     0.69255151     0.52773376     0.10000000 1 1 1
     0.71473851     0.55150555     0.10000000 1 1 1
     0.73692552     0.57527734     0.10000000 1 1 1
     0.75911252     0.59904913     0.10000000 1 1 1
     0.78129952     0.62282092     0.10000000 1 1 1
     0.80348653     0.64659271     0.10000000 1 1 1
     0.82567353     0.67036450     0.10000000 1 1 1
     0.84786054     0.69413629     0.10000000 1 1 1
     0.87004754     0.71790808     0.10000000 1 1 1
     0.89223455     0.74167987     0.10000000 1 1 1
     0.91442155     0.76545166     0.10000000 1 1 1
     0.93660856     0.78922345     0.10000000 1 1 1
     0.95879556     0.81299525     0.10000000 1 1 1
     0.98098257     0.83676704     0.10000000 1 1 1
     0.27258320     0.00633914     0.10000000 1 1 1
     0.29477021     0.03011094     0.10000000 1 1 1
     0.31695721     0.05388273     0.10000000 1 1 1
     0.33914422     0.07765452     0.10000000 1 1 1
     0.36133122     0.10142631     0.10000000 1 1 1
     0.38351823     0.12519810     0.10000000 1 1 1
     0.40570523     0.14896989     0.10000000 1 1 1
     0.42789223     0.17274168     0.10000000 1 1 1
     0.45007924     0.19651347     0.10000000 1 1 1
     0.47226624     0.22028526     0.10000000 1 1 1
     0.49445325     0.24405705     0.10000000 1 1 1
     0.51664025     0.26782884     0.10000000 1 1 1
     0.53882726     0.29160063     0.10000000 1 1 1
     0.56101426     0.31537242     0.10000000 1 1 1
     0.58320127     0.33914422     0.10000000 1 1 1
     0.60538827     0.36291601     0.10000000 1 1 1
     0.62757528     0.38668780     0.10000000 1 1 1
     0.64976228     0.41045959     0.10000000 1 1 1
     0.67194929     0.43423138     0.10000000 1 1 1
     0.69413629     0.45800317     0.10000000 1 1 1
     0.71632330     0.48177496     0.10000000 1 1 1
     0.73851030     0.50554675     0.10000000 1 1 1
     0.76069731     0.52931854     0.10000000 1 1 1
     0.78288431     0.55309033     0.10000000 1 1 1
     0.80507132     0.57686212     0.10000000 1 1 1
     0.82725832     0.60063391     0.10000000 1 1 1
     0.84944532     0.62440571     0.10000000 1 1 1
     0.87163233     0.64817750     0.10000000 1 1 1
     0.89381933     0.67194929     0.10000000 1 1 1
     0.91600634     0.69572108     0.10000000 1 1 1
     0.93819334     0.71949287     0.10000000 1 1 1
     0.96038035     0.74326466     0.10000000 1 1 1
     0.98256735     0.76703645     0.10000000 1 1 1
     0.34072900     0.00792393     0.10000000 1 1 1
     0.36291601     0.03169572     0.10000000 1 1 1
     0.38510301     0.05546751     0.10000000 1 1 1
     0.40729002     0.07923930     0.10000000 1 1 1
     0.42947702     0.10301109     0.10000000 1 1 1
     0.45166403     0.12678288     0.10000000 1 1 1
     0.47385103     0.15055468     0.10000000 1 1 1
     0.49603803     0.17432647     0.10000000 1 1 1
     0.51822504     0.19809826     0.10000000 1 1 1
     0.54041204     0.22187005     0.10000000 1 1 1
     0.56259905     0.24564184     0.10000000 1 1 1
     0.58478605     0.26941363     0.10000000 1 1 1
     0.60697306     0.29318542     0.10000000 1 1 1
     0.62916006     0.31695721     0.10000000 1 1 1
     0.65134707     0.34072900     0.10000000 1 1 1
     0.67353407     0.36450079     0.10000000 1 1 1
     0.69572108     0.38827258     0.10000000 1 1 1
     0.71790808     0.41204437     0.10000000 1 1 1
     0.74009509     0.43581616     0.10000000 1 1 1
     0.76228209     0.45958796     0.10000000 1 1 1
     0.78446910     0.48335975     0.10000000 1 1 1
     0.80665610     0.50713154     0.10000000 1 1 1
     0.82884311     0.53090333     0.10000000 1 1 1
     0.85103011     0.55467512     0.10000000 1 1 1
     0.87321712     0.57844691     0.10000000 1 1 1
     0.89540412     0.60221870     0.10000000 1 1 1
     0.91759113     0.62599049     0.10000000 1 1 1
     0.93977813     0.64976228     0.10000000 1 1 1
     0.96196513     0.67353407     0.10000000 1 1 1
     0.98415214     0.69730586     0.10000000 1 1 1
     0.40887480     0.00950872     0.10000000 1 1 1
     0.43106181     0.03328051     0.10000000 1 1 1
     0.45324881     0.05705230     0.10000000 1 1 1
     0.47543582     0.08082409     0.10000000 1 1 1
     0.49762282     0.10459588     0.10000000 1 1 1
     0.51980983     0.12836767     0.10000000 1 1 1
     0.54199683     0.15213946     0.10000000 1 1 1
     0.56418384     0.17591125     0.10000000 1 1 1
     0.58637084     0.19968304     0.10000000 1 1 1
     0.60855784     0.22345483     0.10000000 1 1 1
     0.63074485     0.24722662     0.10000000 1 1 1
     0.65293185     0.27099842     0.10000000 1 1 1
     0.67511886     0.29477021     0.10000000 1 1 1
     0.69730586     0.31854200     0.10000000 1 1 1
     0.71949287     0.34231379     0.10000000 1 1 1
     0.74167987     0.36608558     0.10000000 1 1 1
     0.76386688     0.38985737     0.10000000 1 1 1
     0.78605388     0.41362916     0.10000000 1 1 1
     0.80824089     0.43740095     0.10000000 1 1 1
     0.83042789     0.46117274     0.10000000 1 1 1
     0.85261490     0.48494453     0.10000000 1 1 1
     0.87480190     0.50871632     0.10000000 1 1 1
     0.89698891     0.53248811     0.10000000 1 1 1
     0.91917591     0.55625990     0.10000000 1 1 1
     0.94136292     0.58003170     0.10000000 1 1 1
     0.96354992     0.60380349     0.10000000 1 1 1
     0.98573693     0.62757528     0.10000000 1 1 1
     0.47702060     0.01109350     0.10000000 1 1 1
     0.49920761     0.03486529     0.10000000 1 1 1
     0.52139461     0.05863708     0.10000000 1 1 1
     0.54358162     0.08240887     0.10000000 1 1 1
     0.56576862     0.10618067     0.10000000 1 1 1
     0.58795563     0.12995246     0.10000000 1 1 1
     0.61014263     0.15372425     0.10000000 1 1 1
     0.63232964     0.17749604     0.10000000 1 1 1
     0.65451664     0.20126783     0.10000000 1 1 1
     0.67670365     0.22503962     0.10000000 1 1 1
     0.69889065     0.24881141     0.10000000 1 1 1
     0.72107765     0.27258320     0.10000000 1 1 1
     0.74326466     0.29635499     0.10000000 1 1 1
     0.76545166     0.32012678     0.10000000 1 1 1
     0.78763867     0.34389857     0.10000000 1 1 1
     0.80982567     0.36767036     0.10000000 1 1 1
     0.83201268     0.39144216     0.10000000 1 1 1
     0.85419968     0.41521395     0.10000000 1 1 1
     0.87638669     0.43898574     0.10000000 1 1 1
     0.89857369     0.46275753     0.10000000 1 1 1
     0.92076070     0.48652932     0.10000000 1 1 1
     0.94294770     0.51030111     0.10000000 1 1 1
     0.96513471     0.53407290     0.10000000 1 1 1
     0.98732171     0.55784469     0.10000000 1 1 1
     0.54516640     0.01267829     0.10000000 1 1 1
     0.56735341     0.03645008     0.10000000 1 1 1
     0.58954041     0.06022187     0.10000000 1 1 1
     0.61172742     0.08399366     0.10000000 1 1 1
     0.63391442     0.10776545     0.10000000 1 1 1
     0.65610143     0.13153724     0.10000000 1 1 1
     0.67828843     0.15530903     0.10000000 1 1 1
     0.70047544     0.17908082     0.10000000 1 1 1
     0.72266244     0.20285261     0.10000000 1 1 1
     0.74484945     0.22662441     0.10000000 1 1 1
     0.76703645     0.25039620     0.10000000 1 1 1
     0.78922345     0.27416799     0.10000000 1 1 1
     0.81141046     0.29793978     0.10000000 1 1 1
     0.83359746     0.32171157     0.10000000 1 1 1
     0.85578447     0.34548336     0.10000000 1 1 1
     0.87797147     0.36925515     0.10000000 1 1 1
     0.90015848     0.39302694     0.10000000 1 1 1
     0.92234548     0.41679873     0.10000000 1 1 1
     0.94453249     0.44057052     0.10000000 1 1 1
     0.96671949     0.46434231     0.10000000 1 1 1
     0.98890650     0.48811410     0.10000000 1 1 1
     0.61331220     0.01426307     0.10000000 1 1 1
     0.63549921     0.03803487     0.10000000 1 1 1