ATOMIC_SPECIES
C 6.000 /mnt/C_ONCV_PBE-1.0.upf

NUMERICAL_ORBITAL
/mnt/C_gga_8au_100Ry_2s2p1d.orb

LATTICE_CONSTANT
1.889716

LATTICE_VECTORS
       17.2164995944       8.5199577193       0.0000000000
       -13.3059828741       26.8877447874       0.0000000000
       8.6082497972       4.2599788596       16.6357492578

ATOMIC_POSITIONS
Direct

C
0.0
244
     0.016393440     0.100000000     0.770491800 1 1 1
     0.081967210     0.100000000     0.852459020 1 1 1
     0.147540980     0.100000000     0.934426230 1 1 1
     0.032786890     0.100000000     0.540983610 1 1 1
     0.098360660     0.100000000     0.622950820 1 1 1
     0.163934430     0.100000000     0.704918030 1 1 1
     0.229508200     0.100000000     0.786885250 1 1 1
     0.295081970     0.100000000     0.868852460 1 1 1
     0.360655740     0.100000000     0.950819670 1 1 1
     0.049180330     0.100000000     0.311475410 1 1 1
     0.114754100     0.100000000     0.393442620 1 1 1
     0.180327870     0.100000000     0.475409840 1 1 1
     0.245901640     0.100000000     0.557377050 1 1 1
     0.311475410     0.100000000     0.639344260 1 1 1
     0.377049180     0.100000000     0.721311480 1 1 1
     0.442622950     0.100000000     0.803278690 1 1 1
     0.508196720     0.100000000     0.885245900 1 1 1
     0.573770490     0.100000000     0.967213110 1 1 1
     0.000000000     0.100000000     0.000000000 1 1 1
     0.065573770     0.100000000     0.081967210 1 1 1
     0.131147540     0.100000000     0.163934430 1 1 1
     0.196721310     0.100000000     0.245901640 1 1 1
     0.262295080     0.100000000     0.327868850 1 1 1
     0.327868850     0.100000000     0.409836070 1 1 1
     0.393442620     0.100000000     0.491803280 1 1 1
     0.459016390     0.100000000     0.573770490 1 1 1
     0.524590160     0.100000000     0.655737700 1 1 1
     0.590163930     0.100000000     0.737704920 1 1 1
     0.655737700     0.100000000     0.819672130 1 1 1
     0.721311480     0.100000000     0.901639340 1 1 1
     0.786885250     0.100000000     0.983606560 1 1 1
     0.213114750     0.100000000     0.016393440 1 1 1
     0.278688520     0.100000000     0.098360660 1 1 1
     0.344262300     0.100000000     0.180327870 1 1 1
     0.409836070     0.100000000     0.262295080 1 1 1
     0.475409840     0.100000000     0.344262300 1 1 1
     0.540983610     0.100000000     0.426229510 1 1 1
     0.606557380     0.100000000     0.508196720 1 1 1
     0.672131150     0.100000000     0.590163930 1 1 1
     0.737704920     0.100000000     0.672131150 1 1 1
     0.803278690     0.100000000     0.754098360 1 1 1
     0.868852460     0.100000000     0.836065570 1 1 1
     0.934426230     0.100000000     0.918032790 1 1 1
     0.426229510     0.100000000     0.032786890 1 1 1
     0.491803280     0.100000000     0.114754100 1 1 1
     0.557377050     0.100000000     0.196721310 1 1 1
     0.622950820     0.100000000     0.278688520 1 1 1
     0.688524590     0.100000000     0.360655740 1 1 1
     0.754098360     0.100000000     0.442622950 1 1 1
     0.819672130     0.100000000     0.524590160 1 1 1
     0.885245900     0.100000000     0.606557380 1 1 1
     0.950819670     0.100000000     0.688524590 1 1 1
     0.639344260     0.100000000     0.049180330 1 1 1
     0.704918030     0.100000000     0.131147540 1 1 1
     0.770491800     0.100000000     0.213114750 1 1 1
     0.836065570     0.100000000     0.295081970 1 1 1
     0.901639340     0.100000000     0.377049180 1 1 1
     0.967213110     0.100000000     0.459016390 1 1 1
     0.852459020     0.100000000     0.065573770 1 1 1
     0.918032790     0.100000000     0.147540980 1 1 1
     0.983606560     0.100000000     0.229508200 1 1 1
     0.158469950     0.100000000     0.781420760 1 1 1
     0.224043720     0.100000000     0.863387970 1 1 1
     0.289617490     0.100000000     0.945355190 1 1 1
     0.174863390     0.100000000     0.551912560 1 1 1
     0.240437160     0.100000000     0.633879780 1 1 1
     0.306010930     0.100000000     0.715846990 1 1 1
     0.371584700     0.100000000     0.797814200 1 1 1
     0.437158470     0.100000000     0.879781420 1 1 1
     0.502732240     0.100000000     0.961748630 1 1 1
     0.191256830     0.100000000     0.322404370 1 1 1
     0.256830600     0.100000000     0.404371580 1 1 1
     0.322404370     0.100000000     0.486338790 1 1 1
     0.387978140     0.100000000     0.568306010 1 1 1
     0.453551910     0.100000000     0.650273220 1 1 1
     0.519125680     0.100000000     0.732240430 1 1 1
     0.584699450     0.100000000     0.814207650 1 1 1
     0.650273220     0.100000000     0.896174860 1 1 1
     0.715846990     0.100000000     0.978142070 1 1 1
     0.142076500     0.100000000     0.010928960 1 1 1
     0.207650270     0.100000000     0.092896170 1 1 1
     0.273224040     0.100000000     0.174863380 1 1 1
     0.338797810     0.100000000     0.256830600 1 1 1
     0.404371590     0.100000000     0.338797810 1 1 1
     0.469945360     0.100000000     0.420765020 1 1 1
     0.535519130     0.100000000     0.502732240 1 1 1
     0.601092900     0.100000000     0.584699450 1 1 1
     0.666666670     0.100000000     0.666666660 1 1 1
     0.732240440     0.100000000     0.748633880 1 1 1
     0.797814210     0.100000000     0.830601090 1 1 1
     0.863387980     0.100000000     0.912568300 1 1 1
     0.928961750     0.100000000     0.994535510 1 1 1
     0.355191260     0.100000000     0.027322400 1 1 1
     0.420765030     0.100000000     0.109289610 1 1 1
     0.486338800     0.100000000     0.191256830 1 1 1
     0.551912570     0.100000000     0.273224040 1 1 1
     0.617486340     0.100000000     0.355191250 1 1 1
     0.683060110     0.100000000     0.437158470 1 1 1
     0.748633880     0.100000000     0.519125680 1 1 1
     0.814207650     0.100000000     0.601092890 1 1 1
     0.879781420     0.100000000     0.683060100 1 1 1
     0.945355190     0.100000000     0.765027320 1 1 1
     0.010928960     0.100000000     0.846994530 1 1 1
     0.076502730     0.100000000     0.928961740 1 1 1
     0.568306010     0.100000000     0.043715840 1 1 1
     0.633879780     0.100000000     0.125683060 1 1 1
     0.699453550     0.100000000     0.207650270 1 1 1
     0.765027320     0.100000000     0.289617480 1 1 1
     0.830601090     0.100000000     0.371584690 1 1 1
     0.896174860     0.100000000     0.453551910 1 1 1
     0.961748630     0.100000000     0.535519120 1 1 1
     0.027322400     0.100000000     0.617486330 1 1 1
     0.092896180     0.100000000     0.699453550 1 1 1
     0.781420770     0.100000000     0.060109290 1 1 1
     0.846994540     0.100000000     0.142076500 1 1 1
     0.912568310     0.100000000     0.224043710 1 1 1
     0.978142080     0.100000000     0.306010920 1 1 1
     0.043715850     0.100000000     0.387978140 1 1 1
     0.109289620     0.100000000     0.469945350 1 1 1
     0.994535520     0.100000000     0.076502730 1 1 1
     0.060109290     0.100000000     0.158469940 1 1 1
     0.125683060     0.100000000     0.240437150 1 1 1
     0.065573770     0.213613330     0.852459020 1 1 1
     0.147540980     0.213613330     0.918032790 1 1 1
     0.229508200     0.213613330     0.983606560 1 1 1
     0.049180330     0.213613330     0.639344260 1 1 1
     0.131147540     0.213613330     0.704918030 1 1 1
     0.213114750     0.213613330     0.770491800 1 1 1
     0.295081970     0.213613330     0.836065570 1 1 1
     0.377049180     0.213613330     0.901639340 1 1 1
     0.459016390     0.213613330     0.967213110 1 1 1
     0.032786890     0.213613330     0.426229510 1 1 1
     0.114754100     0.213613330     0.491803280 1 1 1
     0.196721310     0.213613330     0.557377050 1 1 1
     0.278688520     0.213613330     0.622950820 1 1 1
     0.360655740     0.213613330     0.688524590 1 1 1
     0.442622950     0.213613330     0.754098360 1 1 1
     0.524590160     0.213613330     0.819672130 1 1 1
     0.606557380     0.213613330     0.885245900 1 1 1
     0.688524590     0.213613330     0.950819670 1 1 1
     0.016393440     0.213613330     0.213114750 1 1 1
     0.098360660     0.213613330     0.278688520 1 1 1
     0.180327870     0.213613330     0.344262300 1 1 1
     0.262295080     0.213613330     0.409836070 1 1 1
     0.344262300     0.213613330     0.475409840 1 1 1
     0.426229510     0.213613330     0.540983610 1 1 1
     0.508196720     0.213613330     0.606557380 1 1 1
     0.590163930     0.213613330     0.672131150 1 1 1
     0.672131150     0.213613330     0.737704920 1 1 1
     0.754098360     0.213613330     0.803278690 1 1 1
     0.836065570     0.213613330     0.868852460 1 1 1
     0.918032790     0.213613330     0.934426230 1 1 1
     0.000000000     0.213613330     0.000000000 1 1 1
     0.081967210     0.213613330     0.065573770 1 1 1
     0.163934430     0.213613330     0.131147540 1 1 1
     0.245901640     0.213613330     0.196721310 1 1 1
     0.327868850     0.213613330     0.262295080 1 1 1
     0.409836070     0.213613330     0.327868850 1 1 1
     0.491803280     0.213613330     0.393442620 1 1 1
     0.573770490     0.213613330     0.459016390 1 1 1
     0.655737700     0.213613330     0.524590160 1 1 1
     0.737704920     0.213613330     0.590163930 1 1 1
     0.819672130     0.213613330     0.655737700 1 1 1
     0.901639340     0.213613330     0.721311480 1 1 1
     0.983606560     0.213613330     0.786885250 1 1 1
     0.311475410     0.213613330     0.049180330 1 1 1
     0.393442620     0.213613330     0.114754100 1 1 1
     0.475409840     0.213613330     0.180327870 1 1 1
     0.557377050     0.213613330     0.245901640 1 1 1
     0.639344260     0.213613330     0.311475410 1 1 1
     0.721311480     0.213613330     0.377049180 1 1 1
     0.803278690     0.213613330     0.442622950 1 1 1
     0.885245900     0.213613330     0.508196720 1 1 1
     0.967213110     0.213613330     0.573770490 1 1 1
     0.540983610     0.213613330     0.032786890 1 1 1
     0.622950820     0.213613330     0.098360660 1 1 1
     0.704918030     0.213613330     0.163934430 1 1 1
     0.786885250     0.213613330     0.229508200 1 1 1
     0.868852460     0.213613330     0.295081970 1 1 1
     0.950819670     0.213613330     0.360655740 1 1 1
     0.770491800     0.213613330     0.016393440 1 1 1
     0.852459020     0.213613330     0.081967210 1 1 1
     0.934426230     0.213613330     0.147540980 1 1 1
     0.218579230     0.213613330     0.841530050 1 1 1
     0.300546450     0.213613330     0.907103820 1 1 1
     0.382513660     0.213613330     0.972677590 1 1 1
     0.202185790     0.213613330     0.628415300 1 1 1
     0.284153010     0.213613330     0.693989070 1 1 1
     0.366120220     0.213613330     0.759562840 1 1 1
     0.448087430     0.213613330     0.825136610 1 1 1
     0.530054640     0.213613330     0.890710380 1 1 1
     0.612021860     0.213613330     0.956284150 1 1 1
     0.185792350     0.213613330     0.415300540 1 1 1
     0.267759560     0.213613330     0.480874310 1 1 1
     0.349726780     0.213613330     0.546448080 1 1 1
     0.431693990     0.213613330     0.612021850 1 1 1
     0.513661200     0.213613330     0.677595620 1 1 1
     0.595628420     0.213613330     0.743169390 1 1 1
     0.677595630     0.213613330     0.808743170 1 1 1
     0.759562840     0.213613330     0.874316940 1 1 1
     0.841530050     0.213613330     0.939890710 1 1 1
     0.169398910     0.213613330     0.202185790 1 1 1
     0.251366120     0.213613330     0.267759560 1 1 1
     0.333333330     0.213613330     0.333333330 1 1 1
     0.415300550     0.213613330     0.398907100 1 1 1
     0.497267760     0.213613330     0.464480870 1 1 1
     0.579234970     0.213613330     0.530054640 1 1 1
     0.661202190     0.213613330     0.595628410 1 1 1
     0.743169400     0.213613330     0.661202180 1 1 1
     0.825136610     0.213613330     0.726775950 1 1 1
     0.907103820     0.213613330     0.792349720 1 1 1
     0.989071040     0.213613330     0.857923490 1 1 1
     0.071038250     0.213613330     0.923497260 1 1 1
     0.153005460     0.213613330     0.989071030 1 1 1
     0.234972680     0.213613330     0.054644800 1 1 1
     0.316939890     0.213613330     0.120218570 1 1 1
     0.398907100     0.213613330     0.185792350 1 1 1
     0.480874320     0.213613330     0.251366120 1 1 1
     0.562841530     0.213613330     0.316939890 1 1 1
     0.644808740     0.213613330     0.382513660 1 1 1
     0.726775960     0.213613330     0.448087430 1 1 1
     0.808743170     0.213613330     0.513661200 1 1 1
     0.890710380     0.213613330     0.579234970 1 1 1
     0.972677600     0.213613330     0.644808740 1 1 1
     0.054644810     0.213613330     0.710382510 1 1 1
     0.136612020     0.213613330     0.775956280 1 1 1
     0.464480870     0.213613330     0.038251360 1 1 1
     0.546448090     0.213613330     0.103825130 1 1 1
     0.628415300     0.213613330     0.169398900 1 1 1
     0.710382510     0.213613330     0.234972670 1 1 1
     0.792349730     0.213613330     0.300546440 1 1 1
     0.874316940     0.213613330     0.366120210 1 1 1
     0.956284150     0.213613330     0.431693980 1 1 1
     0.038251370     0.213613330     0.497267760 1 1 1
     0.120218580     0.213613330     0.562841530 1 1 1
     0.693989070     0.213613330     0.021857920 1 1 1
     0.775956280     0.213613330     0.087431690 1 1 1
     0.857923500     0.213613330     0.153005460 1 1 1
     0.939890710     0.213613330     0.218579230 1 1 1
     0.021857920     0.213613330     0.284153000 1 1 1
     0.103825140     0.213613330     0.349726770 1 1 1
     0.923497270     0.213613330     0.005464480 1 1 1
     0.005464480     0.213613330     0.071038250 1 1 1
     0.087431690     0.213613330     0.136612020 1 1 1
