ATOMIC_SPECIES
C 6.000 ./C_ONCV_PBE-1.0.upf

NUMERICAL_ORBITAL
./C_gga_8au_100Ry_2s2p1d.orb

LATTICE_CONSTANT
1.889716

LATTICE_VECTORS
       109.4477531768       61.7696967329       0.0000000000
       -14.7450567512       26.1262952101       0.0000000000
       54.7238639671       30.8848412433       108.8380972078

ATOMIC_POSITIONS
Direct

C
0.0
10444
     0.000383000     0.100000000     0.965913440 1 1 1
     0.011489850     0.100000000     0.977403290 1 1 1
     0.022596710     0.100000000     0.988893140 1 1 1
     0.000765990     0.100000000     0.931826890 1 1 1
     0.011872850     0.100000000     0.943316740 1 1 1
     0.022979700     0.100000000     0.954806590 1 1 1
     0.034086560     0.100000000     0.966296440 1 1 1
     0.045193410     0.100000000     0.977786290 1 1 1
     0.056300270     0.100000000     0.989276140 1 1 1
     0.001148990     0.100000000     0.897740330 1 1 1
     0.012255840     0.100000000     0.909230180 1 1 1
     0.023362700     0.100000000     0.920720030 1 1 1
     0.034469550     0.100000000     0.932209880 1 1 1
     0.045576410     0.100000000     0.943699730 1 1 1
     0.056683260     0.100000000     0.955189580 1 1 1
     0.067790120     0.100000000     0.966679430 1 1 1
     0.078896970     0.100000000     0.978169280 1 1 1
     0.090003830     0.100000000     0.989659130 1 1 1
     0.001531980     0.100000000     0.863653770 1 1 1
     0.012638840     0.100000000     0.875143620 1 1 1
     0.023745690     0.100000000     0.886633470 1 1 1
     0.034852550     0.100000000     0.898123320 1 1 1
     0.045959400     0.100000000     0.909613180 1 1 1
     0.057066260     0.100000000     0.921103030 1 1 1
     0.068173110     0.100000000     0.932592880 1 1 1
     0.079279970     0.100000000     0.944082730 1 1 1
     0.090386820     0.100000000     0.955572580 1 1 1
     0.101493680     0.100000000     0.967062430 1 1 1
     0.112600540     0.100000000     0.978552280 1 1 1
     0.123707390     0.100000000     0.990042130 1 1 1
     0.001914980     0.100000000     0.829567220 1 1 1
     0.013021830     0.100000000     0.841057070 1 1 1
     0.024128690     0.100000000     0.852546920 1 1 1
     0.035235540     0.100000000     0.864036770 1 1 1
     0.046342400     0.100000000     0.875526620 1 1 1
     0.057449250     0.100000000     0.887016470 1 1 1
     0.068556110     0.100000000     0.898506320 1 1 1
     0.079662960     0.100000000     0.909996170 1 1 1
     0.090769820     0.100000000     0.921486020 1 1 1
     0.101876680     0.100000000     0.932975870 1 1 1
     0.112983530     0.100000000     0.944465720 1 1 1
     0.124090390     0.100000000     0.955955570 1 1 1
     0.135197240     0.100000000     0.967445420 1 1 1
     0.146304100     0.100000000     0.978935270 1 1 1
     0.157410950     0.100000000     0.990425120 1 1 1
     0.002297970     0.100000000     0.795480660 1 1 1
     0.013404830     0.100000000     0.806970510 1 1 1
     0.024511680     0.100000000     0.818460360 1 1 1
     0.035618540     0.100000000     0.829950210 1 1 1
     0.046725390     0.100000000     0.841440060 1 1 1
     0.057832250     0.100000000     0.852929910 1 1 1
     0.068939100     0.100000000     0.864419760 1 1 1
     0.080045960     0.100000000     0.875909610 1 1 1
     0.091152820     0.100000000     0.887399460 1 1 1
     0.102259670     0.100000000     0.898889310 1 1 1
     0.113366530     0.100000000     0.910379170 1 1 1
     0.124473380     0.100000000     0.921869020 1 1 1
     0.135580240     0.100000000     0.933358870 1 1 1
     0.146687090     0.100000000     0.944848720 1 1 1
     0.157793950     0.100000000     0.956338570 1 1 1
     0.168900800     0.100000000     0.967828420 1 1 1
     0.180007660     0.100000000     0.979318270 1 1 1
     0.191114520     0.100000000     0.990808120 1 1 1
     0.002680970     0.100000000     0.761394100 1 1 1
     0.013787820     0.100000000     0.772883950 1 1 1
     0.024894680     0.100000000     0.784373800 1 1 1
     0.036001530     0.100000000     0.795863650 1 1 1
     0.047108390     0.100000000     0.807353500 1 1 1
     0.058215240     0.100000000     0.818843360 1 1 1
     0.069322100     0.100000000     0.830333210 1 1 1
     0.080428950     0.100000000     0.841823060 1 1 1
     0.091535810     0.100000000     0.853312910 1 1 1
     0.102642670     0.100000000     0.864802760 1 1 1
     0.113749520     0.100000000     0.876292610 1 1 1
     0.124856380     0.100000000     0.887782460 1 1 1
     0.135963230     0.100000000     0.899272310 1 1 1
     0.147070090     0.100000000     0.910762160 1 1 1
     0.158176940     0.100000000     0.922252010 1 1 1
     0.169283800     0.100000000     0.933741860 1 1 1
     0.180390650     0.100000000     0.945231710 1 1 1
     0.191497510     0.100000000     0.956721560 1 1 1
     0.202604370     0.100000000     0.968211410 1 1 1
     0.213711220     0.100000000     0.979701260 1 1 1
     0.224818080     0.100000000     0.991191110 1 1 1
     0.003063960     0.100000000     0.727307550 1 1 1
     0.014170820     0.100000000     0.738797400 1 1 1
     0.025277670     0.100000000     0.750287250 1 1 1
     0.036384530     0.100000000     0.761777100 1 1 1
     0.047491380     0.100000000     0.773266950 1 1 1
     0.058598240     0.100000000     0.784756800 1 1 1
     0.069705090     0.100000000     0.796246650 1 1 1
     0.080811950     0.100000000     0.807736500 1 1 1
     0.091918810     0.100000000     0.819226350 1 1 1
     0.103025660     0.100000000     0.830716200 1 1 1
     0.114132520     0.100000000     0.842206050 1 1 1
     0.125239370     0.100000000     0.853695900 1 1 1
     0.136346230     0.100000000     0.865185750 1 1 1
     0.147453080     0.100000000     0.876675600 1 1 1
     0.158559940     0.100000000     0.888165450 1 1 1
     0.169666790     0.100000000     0.899655300 1 1 1
     0.180773650     0.100000000     0.911145160 1 1 1
     0.191880510     0.100000000     0.922635010 1 1 1
     0.202987360     0.100000000     0.934124860 1 1 1
     0.214094220     0.100000000     0.945614710 1 1 1
     0.225201070     0.100000000     0.957104560 1 1 1
     0.236307930     0.100000000     0.968594410 1 1 1
     0.247414780     0.100000000     0.980084260 1 1 1
     0.258521640     0.100000000     0.991574110 1 1 1
     0.003446960     0.100000000     0.693220990 1 1 1
     0.014553810     0.100000000     0.704710840 1 1 1
     0.025660670     0.100000000     0.716200690 1 1 1
     0.036767520     0.100000000     0.727690540 1 1 1
     0.047874380     0.100000000     0.739180390 1 1 1
     0.058981230     0.100000000     0.750670240 1 1 1
     0.070088090     0.100000000     0.762160090 1 1 1
     0.081194940     0.100000000     0.773649940 1 1 1
     0.092301800     0.100000000     0.785139790 1 1 1
     0.103408660     0.100000000     0.796629640 1 1 1
     0.114515510     0.100000000     0.808119490 1 1 1
     0.125622370     0.100000000     0.819609350 1 1 1
     0.136729220     0.100000000     0.831099200 1 1 1
     0.147836080     0.100000000     0.842589050 1 1 1
     0.158942930     0.100000000     0.854078900 1 1 1
     0.170049790     0.100000000     0.865568750 1 1 1
     0.181156640     0.100000000     0.877058600 1 1 1
     0.192263500     0.100000000     0.888548450 1 1 1
     0.203370360     0.100000000     0.900038300 1 1 1
     0.214477210     0.100000000     0.911528150 1 1 1
     0.225584070     0.100000000     0.923018000 1 1 1
     0.236690920     0.100000000     0.934507850 1 1 1
     0.247797780     0.100000000     0.945997700 1 1 1
     0.258904630     0.100000000     0.957487550 1 1 1
     0.270011490     0.100000000     0.968977400 1 1 1
     0.281118350     0.100000000     0.980467250 1 1 1
     0.292225200     0.100000000     0.991957100 1 1 1
     0.003829950     0.100000000     0.659134430 1 1 1
     0.014936810     0.100000000     0.670624280 1 1 1
     0.026043660     0.100000000     0.682114130 1 1 1
     0.037150520     0.100000000     0.693603980 1 1 1
     0.048257370     0.100000000     0.705093830 1 1 1
     0.059364230     0.100000000     0.716583680 1 1 1
     0.070471080     0.100000000     0.728073540 1 1 1
     0.081577940     0.100000000     0.739563390 1 1 1
     0.092684800     0.100000000     0.751053240 1 1 1
     0.103791650     0.100000000     0.762543090 1 1 1
     0.114898510     0.100000000     0.774032940 1 1 1
     0.126005360     0.100000000     0.785522790 1 1 1
     0.137112220     0.100000000     0.797012640 1 1 1
     0.148219070     0.100000000     0.808502490 1 1 1
     0.159325930     0.100000000     0.819992340 1 1 1
     0.170432780     0.100000000     0.831482190 1 1 1
     0.181539640     0.100000000     0.842972040 1 1 1
     0.192646500     0.100000000     0.854461890 1 1 1
     0.203753350     0.100000000     0.865951740 1 1 1
     0.214860210     0.100000000     0.877441590 1 1 1
     0.225967060     0.100000000     0.888931440 1 1 1
     0.237073920     0.100000000     0.900421290 1 1 1
     0.248180770     0.100000000     0.911911150 1 1 1
     0.259287630     0.100000000     0.923401000 1 1 1
     0.270394480     0.100000000     0.934890850 1 1 1
     0.281501340     0.100000000     0.946380700 1 1 1
     0.292608200     0.100000000     0.957870550 1 1 1
     0.303715050     0.100000000     0.969360400 1 1 1
     0.314821910     0.100000000     0.980850250 1 1 1
     0.325928760     0.100000000     0.992340100 1 1 1
     0.004212950     0.100000000     0.625047870 1 1 1
     0.015319800     0.100000000     0.636537730 1 1 1
     0.026426660     0.100000000     0.648027580 1 1 1
     0.037533510     0.100000000     0.659517430 1 1 1
     0.048640370     0.100000000     0.671007280 1 1 1
     0.059747220     0.100000000     0.682497130 1 1 1
     0.070854080     0.100000000     0.693986980 1 1 1
     0.081960930     0.100000000     0.705476830 1 1 1
     0.093067790     0.100000000     0.716966680 1 1 1
     0.104174650     0.100000000     0.728456530 1 1 1
     0.115281500     0.100000000     0.739946380 1 1 1
     0.126388360     0.100000000     0.751436230 1 1 1
     0.137495210     0.100000000     0.762926080 1 1 1
     0.148602070     0.100000000     0.774415930 1 1 1
     0.159708920     0.100000000     0.785905780 1 1 1
     0.170815780     0.100000000     0.797395630 1 1 1
     0.181922640     0.100000000     0.808885480 1 1 1
     0.193029490     0.100000000     0.820375340 1 1 1
     0.204136350     0.100000000     0.831865190 1 1 1
     0.215243200     0.100000000     0.843355040 1 1 1
     0.226350060     0.100000000     0.854844890 1 1 1
     0.237456910     0.100000000     0.866334740 1 1 1
     0.248563770     0.100000000     0.877824590 1 1 1
     0.259670620     0.100000000     0.889314440 1 1 1
     0.270777480     0.100000000     0.900804290 1 1 1
     0.281884340     0.100000000     0.912294140 1 1 1
     0.292991190     0.100000000     0.923783990 1 1 1
     0.304098050     0.100000000     0.935273840 1 1 1
     0.315204900     0.100000000     0.946763690 1 1 1
     0.326311760     0.100000000     0.958253540 1 1 1
     0.337418610     0.100000000     0.969743390 1 1 1
     0.348525470     0.100000000     0.981233240 1 1 1
     0.359632320     0.100000000     0.992723090 1 1 1
     0.004595940     0.100000000     0.590961320 1 1 1
     0.015702800     0.100000000     0.602451170 1 1 1
     0.026809650     0.100000000     0.613941020 1 1 1
     0.037916510     0.100000000     0.625430870 1 1 1
     0.049023360     0.100000000     0.636920720 1 1 1
     0.060130220     0.100000000     0.648410570 1 1 1
     0.071237070     0.100000000     0.659900420 1 1 1
     0.082343930     0.100000000     0.671390270 1 1 1
     0.093450790     0.100000000     0.682880120 1 1 1
     0.104557640     0.100000000     0.694369970 1 1 1
     0.115664500     0.100000000     0.705859820 1 1 1
     0.126771350     0.100000000     0.717349670 1 1 1
     0.137878210     0.100000000     0.728839530 1 1 1
     0.148985060     0.100000000     0.740329380 1 1 1
     0.160091920     0.100000000     0.751819230 1 1 1
     0.171198770     0.100000000     0.763309080 1 1 1
     0.182305630     0.100000000     0.774798930 1 1 1
     0.193412490     0.100000000     0.786288780 1 1 1
     0.204519340     0.100000000     0.797778630 1 1 1
     0.215626200     0.100000000     0.809268480 1 1 1
     0.226733050     0.100000000     0.820758330 1 1 1
     0.237839910     0.100000000     0.832248180 1 1 1
     0.248946760     0.100000000     0.843738030 1 1 1
     0.260053620     0.100000000     0.855227880 1 1 1
     0.271160470     0.100000000     0.866717730 1 1 1
     0.282267330     0.100000000     0.878207580 1 1 1
     0.293374190     0.100000000     0.889697430 1 1 1
     0.304481040     0.100000000     0.901187280 1 1 1
     0.315587900     0.100000000     0.912677140 1 1 1
     0.326694750     0.100000000     0.924166990 1 1 1
     0.337801610     0.100000000     0.935656840 1 1 1
     0.348908460     0.100000000     0.947146690 1 1 1
     0.360015320     0.100000000     0.958636540 1 1 1
     0.371122180     0.100000000     0.970126390 1 1 1
     0.382229030     0.100000000     0.981616240 1 1 1
     0.393335890     0.100000000     0.993106090 1 1 1
     0.004978940     0.100000000     0.556874760 1 1 1
     0.016085790     0.100000000     0.568364610 1 1 1
     0.027192650     0.100000000     0.579854460 1 1 1
     0.038299500     0.100000000     0.591344310 1 1 1
     0.049406360     0.100000000     0.602834160 1 1 1
     0.060513210     0.100000000     0.614324010 1 1 1
     0.071620070     0.100000000     0.625813860 1 1 1
     0.082726920     0.100000000     0.637303720 1 1 1
     0.093833780     0.100000000     0.648793570 1 1 1
     0.104940640     0.100000000     0.660283420 1 1 1
     0.116047490     0.100000000     0.671773270 1 1 1
     0.127154350     0.100000000     0.683263120 1 1 1
     0.138261200     0.100000000     0.694752970 1 1 1
     0.149368060     0.100000000     0.706242820 1 1 1
     0.160474910     0.100000000     0.717732670 1 1 1
     0.171581770     0.100000000     0.729222520 1 1 1
     0.182688630     0.100000000     0.740712370 1 1 1
     0.193795480     0.100000000     0.752202220 1 1 1
     0.204902340     0.100000000     0.763692070 1 1 1
     0.216009190     0.100000000     0.775181920 1 1 1
     0.227116050     0.100000000     0.786671770 1 1 1
     0.238222900     0.100000000     0.798161620 1 1 1
     0.249329760     0.100000000     0.809651470 1 1 1
     0.260436610     0.100000000     0.821141330 1 1 1
     0.271543470     0.100000000     0.832631180 1 1 1
     0.282650330     0.100000000     0.844121030 1 1 1
     0.293757180     0.100000000     0.855610880 1 1 1
     0.304864040     0.100000000     0.867100730 1 1 1
     0.315970890     0.100000000     0.878590580 1 1 1
     0.327077750     0.100000000     0.890080430 1 1 1
     0.338184600     0.100000000     0.901570280 1 1 1
     0.349291460     0.100000000     0.913060130 1 1 1
     0.360398310     0.100000000     0.924549980 1 1 1
     0.371505170     0.100000000     0.936039830 1 1 1
     0.382612030     0.100000000     0.947529680 1 1 1
     0.393718880     0.100000000     0.959019530 1 1 1
     0.404825740     0.100000000     0.970509380 1 1 1
     0.415932590     0.100000000     0.981999230 1 1 1
     0.427039450     0.100000000     0.993489080 1 1 1
     0.005361930     0.100000000     0.522788200 1 1 1
     0.016468790     0.100000000     0.534278050 1 1 1
     0.027575640     0.100000000     0.545767910 1 1 1
     0.038682500     0.100000000     0.557257760 1 1 1
     0.049789350     0.100000000     0.568747610 1 1 1
     0.060896210     0.100000000     0.580237460 1 1 1
     0.072003060     0.100000000     0.591727310 1 1 1
     0.083109920     0.100000000     0.603217160 1 1 1
     0.094216780     0.100000000     0.614707010 1 1 1
     0.105323630     0.100000000     0.626196860 1 1 1
     0.116430490     0.100000000     0.637686710 1 1 1
     0.127537340     0.100000000     0.649176560 1 1 1
     0.138644200     0.100000000     0.660666410 1 1 1
     0.149751050     0.100000000     0.672156260 1 1 1
     0.160857910     0.100000000     0.683646110 1 1 1
     0.171964760     0.100000000     0.695135960 1 1 1
     0.183071620     0.100000000     0.706625810 1 1 1
     0.194178480     0.100000000     0.718115660 1 1 1
     0.205285330     0.100000000     0.729605520 1 1 1
     0.216392190     0.100000000     0.741095370 1 1 1
     0.227499040     0.100000000     0.752585220 1 1 1
     0.238605900     0.100000000     0.764075070 1 1 1
     0.249712750     0.100000000     0.775564920 1 1 1
     0.260819610     0.100000000     0.787054770 1 1 1
     0.271926460     0.100000000     0.798544620 1 1 1
     0.283033320     0.100000000     0.810034470 1 1 1
     0.294140180     0.100000000     0.821524320 1 1 1
     0.305247030     0.100000000     0.833014170 1 1 1
     0.316353890     0.100000000     0.844504020 1 1 1
     0.327460740     0.100000000     0.855993870 1 1 1
     0.338567600     0.100000000     0.867483720 1 1 1
     0.349674450     0.100000000     0.878973570 1 1 1
     0.360781310     0.100000000     0.890463420 1 1 1
     0.371888170     0.100000000     0.901953270 1 1 1
     0.382995020     0.100000000     0.913443130 1 1 1
     0.394101880     0.100000000     0.924932980 1 1 1
     0.405208730     0.100000000     0.936422830 1 1 1
     0.416315590     0.100000000     0.947912680 1 1 1
     0.427422440     0.100000000     0.959402530 1 1 1
     0.438529300     0.100000000     0.970892380 1 1 1
     0.449636150     0.100000000     0.982382230 1 1 1
     0.460743010     0.100000000     0.993872080 1 1 1
     0.005744930     0.100000000     0.488701650 1 1 1
     0.016851780     0.100000000     0.500191500 1 1 1
     0.027958640     0.100000000     0.511681350 1 1 1
     0.039065490     0.100000000     0.523171200 1 1 1
     0.050172350     0.100000000     0.534661050 1 1 1
     0.061279200     0.100000000     0.546150900 1 1 1
     0.072386060     0.100000000     0.557640750 1 1 1
     0.083492910     0.100000000     0.569130600 1 1 1
     0.094599770     0.100000000     0.580620450 1 1 1
     0.105706630     0.100000000     0.592110300 1 1 1
     0.116813480     0.100000000     0.603600150 1 1 1
     0.127920340     0.100000000     0.615090000 1 1 1
     0.139027190     0.100000000     0.626579850 1 1 1
     0.150134050     0.100000000     0.638069710 1 1 1
     0.161240900     0.100000000     0.649559560 1 1 1
     0.172347760     0.100000000     0.661049410 1 1 1
     0.183454620     0.100000000     0.672539260 1 1 1
     0.194561470     0.100000000     0.684029110 1 1 1
     0.205668330     0.100000000     0.695518960 1 1 1
     0.216775180     0.100000000     0.707008810 1 1 1
     0.227882040     0.100000000     0.718498660 1 1 1
     0.238988890     0.100000000     0.729988510 1 1 1
     0.250095750     0.100000000     0.741478360 1 1 1
     0.261202600     0.100000000     0.752968210 1 1 1
     0.272309460     0.100000000     0.764458060 1 1 1
     0.283416320     0.100000000     0.775947910 1 1 1
     0.294523170     0.100000000     0.787437760 1 1 1
     0.305630030     0.100000000     0.798927610 1 1 1
     0.316736880     0.100000000     0.810417460 1 1 1
     0.327843740     0.100000000     0.821907320 1 1 1
     0.338950590     0.100000000     0.833397170 1 1 1
     0.350057450     0.100000000     0.844887020 1 1 1
     0.361164300     0.100000000     0.856376870 1 1 1
     0.372271160     0.100000000     0.867866720 1 1 1
     0.383378020     0.100000000     0.879356570 1 1 1
     0.394484870     0.100000000     0.890846420 1 1 1
     0.405591730     0.100000000     0.902336270 1 1 1
     0.416698580     0.100000000     0.913826120 1 1 1
     0.427805440     0.100000000     0.925315970 1 1 1
     0.438912290     0.100000000     0.936805820 1 1 1
     0.450019150     0.100000000     0.948295670 1 1 1
     0.461126010     0.100000000     0.959785520 1 1 1
     0.472232860     0.100000000     0.971275370 1 1 1
     0.483339720     0.100000000     0.982765220 1 1 1
     0.494446570     0.100000000     0.994255070 1 1 1
     0.006127920     0.100000000     0.454615090 1 1 1
     0.017234780     0.100000000     0.466104940 1 1 1
     0.028341630     0.100000000     0.477594790 1 1 1
     0.039448490     0.100000000     0.489084640 1 1 1
     0.050555340     0.100000000     0.500574490 1 1 1
     0.061662200     0.100000000     0.512064340 1 1 1
     0.072769050     0.100000000     0.523554190 1 1 1
     0.083875910     0.100000000     0.535044040 1 1 1
     0.094982770     0.100000000     0.546533900 1 1 1
     0.106089620     0.100000000     0.558023750 1 1 1
     0.117196480     0.100000000     0.569513600 1 1 1
     0.128303330     0.100000000     0.581003450 1 1 1
     0.139410190     0.100000000     0.592493300 1 1 1
     0.150517040     0.100000000     0.603983150 1 1 1
     0.161623900     0.100000000     0.615473000 1 1 1
     0.172730750     0.100000000     0.626962850 1 1 1
     0.183837610     0.100000000     0.638452700 1 1 1
     0.194944470     0.100000000     0.649942550 1 1 1
     0.206051320     0.100000000     0.661432400 1 1 1
     0.217158180     0.100000000     0.672922250 1 1 1
     0.228265030     0.100000000     0.684412100 1 1 1
     0.239371890     0.100000000     0.695901950 1 1 1
     0.250478740     0.100000000     0.707391800 1 1 1
     0.261585600     0.100000000     0.718881650 1 1 1
     0.272692450     0.100000000     0.730371510 1 1 1
     0.283799310     0.100000000     0.741861360 1 1 1
     0.294906170     0.100000000     0.753351210 1 1 1
     0.306013020     0.100000000     0.764841060 1 1 1
     0.317119880     0.100000000     0.776330910 1 1 1
     0.328226730     0.100000000     0.787820760 1 1 1
     0.339333590     0.100000000     0.799310610 1 1 1
     0.350440440     0.100000000     0.810800460 1 1 1
     0.361547300     0.100000000     0.822290310 1 1 1
     0.372654160     0.100000000     0.833780160 1 1 1
     0.383761010     0.100000000     0.845270010 1 1 1
     0.394867870     0.100000000     0.856759860 1 1 1
     0.405974720     0.100000000     0.868249710 1 1 1
     0.417081580     0.100000000     0.879739560 1 1 1
     0.428188430     0.100000000     0.891229410 1 1 1
     0.439295290     0.100000000     0.902719260 1 1 1
     0.450402140     0.100000000     0.914209120 1 1 1
     0.461509000     0.100000000     0.925698970 1 1 1
     0.472615860     0.100000000     0.937188820 1 1 1
     0.483722710     0.100000000     0.948678670 1 1 1
     0.494829570     0.100000000     0.960168520 1 1 1
     0.505936420     0.100000000     0.971658370 1 1 1
     0.517043280     0.100000000     0.983148220 1 1 1
     0.528150130     0.100000000     0.994638070 1 1 1
     0.006510920     0.100000000     0.420528530 1 1 1
     0.017617770     0.100000000     0.432018380 1 1 1
     0.028724630     0.100000000     0.443508230 1 1 1
     0.039831480     0.100000000     0.454998090 1 1 1
     0.050938340     0.100000000     0.466487940 1 1 1
     0.062045190     0.100000000     0.477977790 1 1 1
     0.073152050     0.100000000     0.489467640 1 1 1
     0.084258900     0.100000000     0.500957490 1 1 1
     0.095365760     0.100000000     0.512447340 1 1 1
     0.106472620     0.100000000     0.523937190 1 1 1
     0.117579470     0.100000000     0.535427040 1 1 1
     0.128686330     0.100000000     0.546916890 1 1 1
     0.139793180     0.100000000     0.558406740 1 1 1
     0.150900040     0.100000000     0.569896590 1 1 1
     0.162006890     0.100000000     0.581386440 1 1 1
     0.173113750     0.100000000     0.592876290 1 1 1
     0.184220610     0.100000000     0.604366140 1 1 1
     0.195327460     0.100000000     0.615855990 1 1 1
     0.206434320     0.100000000     0.627345840 1 1 1
     0.217541170     0.100000000     0.638835700 1 1 1
     0.228648030     0.100000000     0.650325550 1 1 1
     0.239754880     0.100000000     0.661815400 1 1 1
     0.250861740     0.100000000     0.673305250 1 1 1
     0.261968590     0.100000000     0.684795100 1 1 1
     0.273075450     0.100000000     0.696284950 1 1 1
     0.284182310     0.100000000     0.707774800 1 1 1
     0.295289160     0.100000000     0.719264650 1 1 1
     0.306396020     0.100000000     0.730754500 1 1 1
     0.317502870     0.100000000     0.742244350 1 1 1
     0.328609730     0.100000000     0.753734200 1 1 1
     0.339716580     0.100000000     0.765224050 1 1 1
     0.350823440     0.100000000     0.776713900 1 1 1
     0.361930290     0.100000000     0.788203750 1 1 1
     0.373037150     0.100000000     0.799693600 1 1 1
     0.384144010     0.100000000     0.811183450 1 1 1
     0.395250860     0.100000000     0.822673310 1 1 1
     0.406357720     0.100000000     0.834163160 1 1 1
     0.417464570     0.100000000     0.845653010 1 1 1
     0.428571430     0.100000000     0.857142860 1 1 1
     0.439678280     0.100000000     0.868632710 1 1 1
     0.450785140     0.100000000     0.880122560 1 1 1
     0.461892000     0.100000000     0.891612410 1 1 1
     0.472998850     0.100000000     0.903102260 1 1 1
     0.484105710     0.100000000     0.914592110 1 1 1
     0.495212560     0.100000000     0.926081960 1 1 1
     0.506319420     0.100000000     0.937571810 1 1 1
     0.517426270     0.100000000     0.949061660 1 1 1
     0.528533130     0.100000000     0.960551510 1 1 1
     0.539639980     0.100000000     0.972041360 1 1 1
     0.550746840     0.100000000     0.983531210 1 1 1
     0.561853700     0.100000000     0.995021060 1 1 1
     0.006893910     0.100000000     0.386441980 1 1 1
     0.018000770     0.100000000     0.397931830 1 1 1
     0.029107620     0.100000000     0.409421680 1 1 1
     0.040214480     0.100000000     0.420911530 1 1 1
     0.051321330     0.100000000     0.432401380 1 1 1
     0.062428190     0.100000000     0.443891230 1 1 1
     0.073535040     0.100000000     0.455381080 1 1 1
     0.084641900     0.100000000     0.466870930 1 1 1
     0.095748760     0.100000000     0.478360780 1 1 1
     0.106855610     0.100000000     0.489850630 1 1 1
     0.117962470     0.100000000     0.501340480 1 1 1
     0.129069320     0.100000000     0.512830330 1 1 1
     0.140176180     0.100000000     0.524320180 1 1 1
     0.151283030     0.100000000     0.535810030 1 1 1
     0.162389890     0.100000000     0.547299890 1 1 1
     0.173496740     0.100000000     0.558789740 1 1 1
     0.184603600     0.100000000     0.570279590 1 1 1
     0.195710460     0.100000000     0.581769440 1 1 1
     0.206817310     0.100000000     0.593259290 1 1 1
     0.217924170     0.100000000     0.604749140 1 1 1
     0.229031020     0.100000000     0.616238990 1 1 1
     0.240137880     0.100000000     0.627728840 1 1 1
     0.251244730     0.100000000     0.639218690 1 1 1
     0.262351590     0.100000000     0.650708540 1 1 1
     0.273458450     0.100000000     0.662198390 1 1 1
     0.284565300     0.100000000     0.673688240 1 1 1
     0.295672160     0.100000000     0.685178090 1 1 1
     0.306779010     0.100000000     0.696667940 1 1 1
     0.317885870     0.100000000     0.708157790 1 1 1
     0.328992720     0.100000000     0.719647640 1 1 1
     0.340099580     0.100000000     0.731137500 1 1 1
     0.351206430     0.100000000     0.742627350 1 1 1
     0.362313290     0.100000000     0.754117200 1 1 1
     0.373420150     0.100000000     0.765607050 1 1 1
     0.384527000     0.100000000     0.777096900 1 1 1
     0.395633860     0.100000000     0.788586750 1 1 1
     0.406740710     0.100000000     0.800076600 1 1 1
     0.417847570     0.100000000     0.811566450 1 1 1
     0.428954420     0.100000000     0.823056300 1 1 1
     0.440061280     0.100000000     0.834546150 1 1 1
     0.451168130     0.100000000     0.846036000 1 1 1
     0.462274990     0.100000000     0.857525850 1 1 1
     0.473381850     0.100000000     0.869015700 1 1 1
     0.484488700     0.100000000     0.880505550 1 1 1
     0.495595560     0.100000000     0.891995400 1 1 1
     0.506702410     0.100000000     0.903485250 1 1 1
     0.517809270     0.100000000     0.914975110 1 1 1
     0.528916120     0.100000000     0.926464960 1 1 1
     0.540022980     0.100000000     0.937954810 1 1 1
     0.551129840     0.100000000     0.949444660 1 1 1
     0.562236690     0.100000000     0.960934510 1 1 1
     0.573343550     0.100000000     0.972424360 1 1 1
     0.584450400     0.100000000     0.983914210 1 1 1
     0.595557260     0.100000000     0.995404060 1 1 1
     0.007276910     0.100000000     0.352355420 1 1 1
     0.018383760     0.100000000     0.363845270 1 1 1
     0.029490620     0.100000000     0.375335120 1 1 1
     0.040597470     0.100000000     0.386824970 1 1 1
     0.051704330     0.100000000     0.398314820 1 1 1
     0.062811180     0.100000000     0.409804670 1 1 1
     0.073918040     0.100000000     0.421294520 1 1 1
     0.085024890     0.100000000     0.432784370 1 1 1
     0.096131750     0.100000000     0.444274220 1 1 1
     0.107238610     0.100000000     0.455764080 1 1 1
     0.118345460     0.100000000     0.467253930 1 1 1
     0.129452320     0.100000000     0.478743780 1 1 1
     0.140559170     0.100000000     0.490233630 1 1 1
     0.151666030     0.100000000     0.501723480 1 1 1
     0.162772880     0.100000000     0.513213330 1 1 1
     0.173879740     0.100000000     0.524703180 1 1 1
     0.184986600     0.100000000     0.536193030 1 1 1
     0.196093450     0.100000000     0.547682880 1 1 1
     0.207200310     0.100000000     0.559172730 1 1 1
     0.218307160     0.100000000     0.570662580 1 1 1
     0.229414020     0.100000000     0.582152430 1 1 1
     0.240520870     0.100000000     0.593642280 1 1 1
     0.251627730     0.100000000     0.605132130 1 1 1
     0.262734580     0.100000000     0.616621980 1 1 1
     0.273841440     0.100000000     0.628111830 1 1 1