ATOMIC_SPECIES
C 6.000 ./C_ONCV_PBE-1.0.upf

NUMERICAL_ORBITAL
./C_gga_8au_100Ry_2s2p1d.orb

LATTICE_CONSTANT
1.889716

LATTICE_VECTORS
       35.6627497123       19.1699051754       0.0000000000
       -14.2039701352       26.4243681551       0.0000000000
       17.8313748562       9.5849525877       35.0640519066

ATOMIC_POSITIONS
Direct

C
0.0
1084
     0.003690040     0.100000000     0.892988930 1 1 1
     0.036900370     0.100000000     0.929889300 1 1 1
     0.070110700     0.100000000     0.966789670 1 1 1
     0.007380070     0.100000000     0.785977860 1 1 1
     0.040590410     0.100000000     0.822878230 1 1 1
     0.073800740     0.100000000     0.859778600 1 1 1
     0.107011070     0.100000000     0.896678970 1 1 1
     0.140221400     0.100000000     0.933579340 1 1 1
     0.173431730     0.100000000     0.970479700 1 1 1
     0.011070110     0.100000000     0.678966790 1 1 1
     0.044280440     0.100000000     0.715867160 1 1 1
     0.077490770     0.100000000     0.752767530 1 1 1
     0.110701110     0.100000000     0.789667900 1 1 1
     0.143911440     0.100000000     0.826568270 1 1 1
     0.177121770     0.100000000     0.863468630 1 1 1
     0.210332100     0.100000000     0.900369000 1 1 1
     0.243542440     0.100000000     0.937269370 1 1 1
     0.276752770     0.100000000     0.974169740 1 1 1
     0.014760150     0.100000000     0.571955720 1 1 1
     0.047970480     0.100000000     0.608856090 1 1 1
     0.081180810     0.100000000     0.645756460 1 1 1
     0.114391140     0.100000000     0.682656830 1 1 1
     0.147601480     0.100000000     0.719557200 1 1 1
     0.180811810     0.100000000     0.756457560 1 1 1
     0.214022140     0.100000000     0.793357930 1 1 1
     0.247232470     0.100000000     0.830258300 1 1 1
     0.280442800     0.100000000     0.867158670 1 1 1
     0.313653140     0.100000000     0.904059040 1 1 1
     0.346863470     0.100000000     0.940959410 1 1 1
     0.380073800     0.100000000     0.977859780 1 1 1
     0.018450180     0.100000000     0.464944650 1 1 1
     0.051660520     0.100000000     0.501845020 1 1 1
     0.084870850     0.100000000     0.538745390 1 1 1
     0.118081180     0.100000000     0.575645760 1 1 1
     0.151291510     0.100000000     0.612546130 1 1 1
     0.184501850     0.100000000     0.649446490 1 1 1
     0.217712180     0.100000000     0.686346860 1 1 1
     0.250922510     0.100000000     0.723247230 1 1 1
     0.284132840     0.100000000     0.760147600 1 1 1
     0.317343170     0.100000000     0.797047970 1 1 1
     0.350553510     0.100000000     0.833948340 1 1 1
     0.383763840     0.100000000     0.870848710 1 1 1
     0.416974170     0.100000000     0.907749080 1 1 1
     0.450184500     0.100000000     0.944649450 1 1 1
     0.483394830     0.100000000     0.981549820 1 1 1
     0.022140220     0.100000000     0.357933580 1 1 1
     0.055350550     0.100000000     0.394833950 1 1 1
     0.088560890     0.100000000     0.431734320 1 1 1
     0.121771220     0.100000000     0.468634690 1 1 1
     0.154981550     0.100000000     0.505535060 1 1 1
     0.188191880     0.100000000     0.542435420 1 1 1
     0.221402210     0.100000000     0.579335790 1 1 1
     0.254612550     0.100000000     0.616236160 1 1 1
     0.287822880     0.100000000     0.653136530 1 1 1
     0.321033210     0.100000000     0.690036900 1 1 1
     0.354243540     0.100000000     0.726937270 1 1 1
     0.387453870     0.100000000     0.763837640 1 1 1
     0.420664210     0.100000000     0.800738010 1 1 1
     0.453874540     0.100000000     0.837638380 1 1 1
     0.487084870     0.100000000     0.874538750 1 1 1
     0.520295200     0.100000000     0.911439110 1 1 1
     0.553505540     0.100000000     0.948339480 1 1 1
     0.586715870     0.100000000     0.985239850 1 1 1
     0.025830260     0.100000000     0.250922510 1 1 1
     0.059040590     0.100000000     0.287822880 1 1 1
     0.092250920     0.100000000     0.324723250 1 1 1
     0.125461250     0.100000000     0.361623620 1 1 1
     0.158671590     0.100000000     0.398523990 1 1 1
     0.191881920     0.100000000     0.435424350 1 1 1
     0.225092250     0.100000000     0.472324720 1 1 1
     0.258302580     0.100000000     0.509225090 1 1 1
     0.291512920     0.100000000     0.546125460 1 1 1
     0.324723250     0.100000000     0.583025830 1 1 1
     0.357933580     0.100000000     0.619926200 1 1 1
     0.391143910     0.100000000     0.656826570 1 1 1
     0.424354240     0.100000000     0.693726940 1 1 1
     0.457564580     0.100000000     0.730627310 1 1 1
     0.490774910     0.100000000     0.767527680 1 1 1
     0.523985240     0.100000000     0.804428040 1 1 1
     0.557195570     0.100000000     0.841328410 1 1 1
     0.590405900     0.100000000     0.878228780 1 1 1
     0.623616240     0.100000000     0.915129150 1 1 1
     0.656826570     0.100000000     0.952029520 1 1 1
     0.690036900     0.100000000     0.988929890 1 1 1
     0.029520300     0.100000000     0.143911440 1 1 1
     0.062730630     0.100000000     0.180811810 1 1 1
     0.095940960     0.100000000     0.217712180 1 1 1
     0.129151290     0.100000000     0.254612550 1 1 1
     0.162361620     0.100000000     0.291512920 1 1 1
     0.195571960     0.100000000     0.328413280 1 1 1
     0.228782290     0.100000000     0.365313650 1 1 1
     0.261992620     0.100000000     0.402214020 1 1 1
     0.295202950     0.100000000     0.439114390 1 1 1
     0.328413280     0.100000000     0.476014760 1 1 1
     0.361623620     0.100000000     0.512915130 1 1 1
     0.394833950     0.100000000     0.549815500 1 1 1
     0.428044280     0.100000000     0.586715870 1 1 1
     0.461254610     0.100000000     0.623616240 1 1 1
     0.494464940     0.100000000     0.660516610 1 1 1
     0.527675280     0.100000000     0.697416970 1 1 1
     0.560885610     0.100000000     0.734317340 1 1 1
     0.594095940     0.100000000     0.771217710 1 1 1
     0.627306270     0.100000000     0.808118080 1 1 1
     0.660516610     0.100000000     0.845018450 1 1 1
     0.693726940     0.100000000     0.881918820 1 1 1
     0.726937270     0.100000000     0.918819190 1 1 1
     0.760147600     0.100000000     0.955719560 1 1 1
     0.793357930     0.100000000     0.992619930 1 1 1
     0.000000000     0.100000000     0.000000000 1 1 1
     0.033210330     0.100000000     0.036900370 1 1 1
     0.066420660     0.100000000     0.073800740 1 1 1
     0.099631000     0.100000000     0.110701110 1 1 1
     0.132841330     0.100000000     0.147601480 1 1 1
     0.166051660     0.100000000     0.184501850 1 1 1
     0.199261990     0.100000000     0.221402210 1 1 1
     0.232472320     0.100000000     0.258302580 1 1 1
     0.265682660     0.100000000     0.295202950 1 1 1
     0.298892990     0.100000000     0.332103320 1 1 1
     0.332103320     0.100000000     0.369003690 1 1 1
     0.365313650     0.100000000     0.405904060 1 1 1
     0.398523990     0.100000000     0.442804430 1 1 1
     0.431734320     0.100000000     0.479704800 1 1 1
     0.464944650     0.100000000     0.516605170 1 1 1
     0.498154980     0.100000000     0.553505540 1 1 1
     0.531365310     0.100000000     0.590405900 1 1 1
     0.564575650     0.100000000     0.627306270 1 1 1
     0.597785980     0.100000000     0.664206640 1 1 1
     0.630996310     0.100000000     0.701107010 1 1 1
     0.664206640     0.100000000     0.738007380 1 1 1
     0.697416970     0.100000000     0.774907750 1 1 1
     0.730627310     0.100000000     0.811808120 1 1 1
     0.763837640     0.100000000     0.848708490 1 1 1
     0.797047970     0.100000000     0.885608860 1 1 1
     0.830258300     0.100000000     0.922509230 1 1 1
     0.863468630     0.100000000     0.959409590 1 1 1
     0.896678970     0.100000000     0.996309960 1 1 1
     0.103321030     0.100000000     0.003690040 1 1 1
     0.136531370     0.100000000     0.040590410 1 1 1
     0.169741700     0.100000000     0.077490770 1 1 1
     0.202952030     0.100000000     0.114391140 1 1 1
     0.236162360     0.100000000     0.151291510 1 1 1
     0.269372690     0.100000000     0.188191880 1 1 1
     0.302583030     0.100000000     0.225092250 1 1 1
     0.335793360     0.100000000     0.261992620 1 1 1
     0.369003690     0.100000000     0.298892990 1 1 1
     0.402214020     0.100000000     0.335793360 1 1 1
     0.435424350     0.100000000     0.372693730 1 1 1
     0.468634690     0.100000000     0.409594100 1 1 1
     0.501845020     0.100000000     0.446494460 1 1 1
     0.535055350     0.100000000     0.483394830 1 1 1
     0.568265680     0.100000000     0.520295200 1 1 1
     0.601476010     0.100000000     0.557195570 1 1 1
     0.634686350     0.100000000     0.594095940 1 1 1
     0.667896680     0.100000000     0.630996310 1 1 1
     0.701107010     0.100000000     0.667896680 1 1 1
     0.734317340     0.100000000     0.704797050 1 1 1
     0.767527680     0.100000000     0.741697420 1 1 1
     0.800738010     0.100000000     0.778597790 1 1 1
     0.833948340     0.100000000     0.815498150 1 1 1
     0.867158670     0.100000000     0.852398520 1 1 1
     0.900369000     0.100000000     0.889298890 1 1 1
     0.933579340     0.100000000     0.926199260 1 1 1
     0.966789670     0.100000000     0.963099630 1 1 1
     0.206642070     0.100000000     0.007380070 1 1 1
     0.239852400     0.100000000     0.044280440 1 1 1
     0.273062730     0.100000000     0.081180810 1 1 1
     0.306273060     0.100000000     0.118081180 1 1 1
     0.339483390     0.100000000     0.154981550 1 1 1
     0.372693730     0.100000000     0.191881920 1 1 1
     0.405904060     0.100000000     0.228782290 1 1 1
     0.439114390     0.100000000     0.265682660 1 1 1
     0.472324720     0.100000000     0.302583030 1 1 1
     0.505535060     0.100000000     0.339483390 1 1 1
     0.538745390     0.100000000     0.376383760 1 1 1
     0.571955720     0.100000000     0.413284130 1 1 1
     0.605166050     0.100000000     0.450184500 1 1 1
     0.638376380     0.100000000     0.487084870 1 1 1
     0.671586720     0.100000000     0.523985240 1 1 1
     0.704797050     0.100000000     0.560885610 1 1 1
     0.738007380     0.100000000     0.597785980 1 1 1
     0.771217710     0.100000000     0.634686350 1 1 1
     0.804428040     0.100000000     0.671586720 1 1 1
     0.837638380     0.100000000     0.708487080 1 1 1
     0.870848710     0.100000000     0.745387450 1 1 1
     0.904059040     0.100000000     0.782287820 1 1 1
     0.937269370     0.100000000     0.819188190 1 1 1
     0.970479700     0.100000000     0.856088560 1 1 1
     0.309963100     0.100000000     0.011070110 1 1 1
     0.343173430     0.100000000     0.047970480 1 1 1
     0.376383760     0.100000000     0.084870850 1 1 1
     0.409594100     0.100000000     0.121771220 1 1 1
     0.442804430     0.100000000     0.158671590 1 1 1
     0.476014760     0.100000000     0.195571960 1 1 1
     0.509225090     0.100000000     0.232472320 1 1 1
     0.542435420     0.100000000     0.269372690 1 1 1
     0.575645760     0.100000000     0.306273060 1 1 1
     0.608856090     0.100000000     0.343173430 1 1 1
     0.642066420     0.100000000     0.380073800 1 1 1
     0.675276750     0.100000000     0.416974170 1 1 1
     0.708487080     0.100000000     0.453874540 1 1 1
     0.741697420     0.100000000     0.490774910 1 1 1
     0.774907750     0.100000000     0.527675280 1 1 1
     0.808118080     0.100000000     0.564575650 1 1 1
     0.841328410     0.100000000     0.601476010 1 1 1
     0.874538750     0.100000000     0.638376380 1 1 1
     0.907749080     0.100000000     0.675276750 1 1 1
     0.940959410     0.100000000     0.712177120 1 1 1
     0.974169740     0.100000000     0.749077490 1 1 1
     0.413284130     0.100000000     0.014760150 1 1 1
     0.446494460     0.100000000     0.051660520 1 1 1
     0.479704800     0.100000000     0.088560890 1 1 1
     0.512915130     0.100000000     0.125461250 1 1 1
     0.546125460     0.100000000     0.162361620 1 1 1
     0.579335790     0.100000000     0.199261990 1 1 1
     0.612546130     0.100000000     0.236162360 1 1 1
     0.645756460     0.100000000     0.273062730 1 1 1
     0.678966790     0.100000000     0.309963100 1 1 1
     0.712177120     0.100000000     0.346863470 1 1 1
     0.745387450     0.100000000     0.383763840 1 1 1
     0.778597790     0.100000000     0.420664210 1 1 1
     0.811808120     0.100000000     0.457564580 1 1 1
     0.845018450     0.100000000     0.494464940 1 1 1
     0.878228780     0.100000000     0.531365310 1 1 1
     0.911439110     0.100000000     0.568265680 1 1 1
     0.944649450     0.100000000     0.605166050 1 1 1
     0.977859780     0.100000000     0.642066420 1 1 1
     0.516605170     0.100000000     0.018450180 1 1 1
     0.549815500     0.100000000     0.055350550 1 1 1
     0.583025830     0.100000000     0.092250920 1 1 1
     0.616236160     0.100000000     0.129151290 1 1 1
     0.649446490     0.100000000     0.166051660 1 1 1
     0.682656830     0.100000000     0.202952030 1 1 1
     0.715867160     0.100000000     0.239852400 1 1 1
     0.749077490     0.100000000     0.276752770 1 1 1
     0.782287820     0.100000000     0.313653140 1 1 1
     0.815498150     0.100000000     0.350553510 1 1 1
     0.848708490     0.100000000     0.387453870 1 1 1
     0.881918820     0.100000000     0.424354240 1 1 1
     0.915129150     0.100000000     0.461254610 1 1 1
     0.948339480     0.100000000     0.498154980 1 1 1
     0.981549820     0.100000000     0.535055350 1 1 1
     0.619926200     0.100000000     0.022140220 1 1 1
     0.653136530     0.100000000     0.059040590 1 1 1
     0.686346860     0.100000000     0.095940960 1 1 1
     0.719557200     0.100000000     0.132841330 1 1 1
     0.752767530     0.100000000     0.169741700 1 1 1
     0.785977860     0.100000000     0.206642070 1 1 1
     0.819188190     0.100000000     0.243542440 1 1 1
     0.852398520     0.100000000     0.280442800 1 1 1
     0.885608860     0.100000000     0.317343170 1 1 1
     0.918819190     0.100000000     0.354243540 1 1 1
     0.952029520     0.100000000     0.391143910 1 1 1
     0.985239850     0.100000000     0.428044280 1 1 1
     0.723247230     0.100000000     0.025830260 1 1 1
     0.756457560     0.100000000     0.062730630 1 1 1
     0.789667900     0.100000000     0.099631000 1 1 1
     0.822878230     0.100000000     0.136531370 1 1 1
     0.856088560     0.100000000     0.173431730 1 1 1
     0.889298890     0.100000000     0.210332100 1 1 1
     0.922509230     0.100000000     0.247232470 1 1 1
     0.955719560     0.100000000     0.284132840 1 1 1
     0.988929890     0.100000000     0.321033210 1 1 1
     0.826568270     0.100000000     0.029520300 1 1 1
     0.859778600     0.100000000     0.066420660 1 1 1
     0.892988930     0.100000000     0.103321030 1 1 1
     0.926199260     0.100000000     0.140221400 1 1 1
     0.959409590     0.100000000     0.177121770 1 1 1
     0.992619930     0.100000000     0.214022140 1 1 1
     0.929889300     0.100000000     0.033210330 1 1 1
     0.963099630     0.100000000     0.070110700 1 1 1
     0.996309960     0.100000000     0.107011070 1 1 1
     0.072570730     0.100000000     0.895448950 1 1 1
     0.105781060     0.100000000     0.932349320 1 1 1
     0.138991390     0.100000000     0.969249690 1 1 1
     0.076260760     0.100000000     0.788437880 1 1 1
     0.109471090     0.100000000     0.825338250 1 1 1
     0.142681430     0.100000000     0.862238620 1 1 1
     0.175891760     0.100000000     0.899138990 1 1 1
     0.209102090     0.100000000     0.936039360 1 1 1
     0.242312420     0.100000000     0.972939730 1 1 1
     0.079950800     0.100000000     0.681426810 1 1 1
     0.113161130     0.100000000     0.718327180 1 1 1
     0.146371460     0.100000000     0.755227550 1 1 1
     0.179581800     0.100000000     0.792127920 1 1 1
     0.212792130     0.100000000     0.829028290 1 1 1
     0.246002460     0.100000000     0.865928660 1 1 1
     0.279212790     0.100000000     0.902829030 1 1 1
     0.312423120     0.100000000     0.939729400 1 1 1
     0.345633460     0.100000000     0.976629760 1 1 1
     0.083640840     0.100000000     0.574415740 1 1 1
     0.116851170     0.100000000     0.611316110 1 1 1
     0.150061500     0.100000000     0.648216480 1 1 1
     0.183271830     0.100000000     0.685116850 1 1 1
     0.216482160     0.100000000     0.722017220 1 1 1
     0.249692500     0.100000000     0.758917590 1 1 1
     0.282902830     0.100000000     0.795817960 1 1 1
     0.316113160     0.100000000     0.832718330 1 1 1
     0.349323490     0.100000000     0.869618690 1 1 1
     0.382533830     0.100000000     0.906519060 1 1 1
     0.415744160     0.100000000     0.943419430 1 1 1
     0.448954490     0.100000000     0.980319800 1 1 1
     0.087330870     0.100000000     0.467404670 1 1 1
     0.120541210     0.100000000     0.504305040 1 1 1
     0.153751540     0.100000000     0.541205410 1 1 1
     0.186961870     0.100000000     0.578105780 1 1 1
     0.220172200     0.100000000     0.615006150 1 1 1
     0.253382530     0.100000000     0.651906520 1 1 1
     0.286592870     0.100000000     0.688806890 1 1 1
     0.319803200     0.100000000     0.725707250 1 1 1
     0.353013530     0.100000000     0.762607620 1 1 1
     0.386223860     0.100000000     0.799507990 1 1 1
     0.419434190     0.100000000     0.836408360 1 1 1
     0.452644530     0.100000000     0.873308730 1 1 1
     0.485854860     0.100000000     0.910209100 1 1 1
     0.519065190     0.100000000     0.947109470 1 1 1
     0.552275520     0.100000000     0.984009840 1 1 1
     0.091020910     0.100000000     0.360393600 1 1 1
     0.124231240     0.100000000     0.397293970 1 1 1
     0.157441570     0.100000000     0.434194340 1 1 1
     0.190651910     0.100000000     0.471094710 1 1 1
     0.223862240     0.100000000     0.507995080 1 1 1
     0.257072570     0.100000000     0.544895450 1 1 1
     0.290282900     0.100000000     0.581795820 1 1 1
     0.323493240     0.100000000     0.618696180 1 1 1
     0.356703570     0.100000000     0.655596550 1 1 1
     0.389913900     0.100000000     0.692496920 1 1 1
     0.423124230     0.100000000     0.729397290 1 1 1
     0.456334560     0.100000000     0.766297660 1 1 1
     0.489544900     0.100000000     0.803198030 1 1 1
     0.522755230     0.100000000     0.840098400 1 1 1
     0.555965560     0.100000000     0.876998770 1 1 1
     0.589175890     0.100000000     0.913899140 1 1 1
     0.622386220     0.100000000     0.950799510 1 1 1
     0.655596560     0.100000000     0.987699870 1 1 1
     0.094710950     0.100000000     0.253382530 1 1 1
     0.127921280     0.100000000     0.290282900 1 1 1
     0.161131610     0.100000000     0.327183270 1 1 1
     0.194341940     0.100000000     0.364083640 1 1 1
     0.227552280     0.100000000     0.400984010 1 1 1
     0.260762610     0.100000000     0.437884380 1 1 1
     0.293972940     0.100000000     0.474784750 1 1 1
     0.327183270     0.100000000     0.511685110 1 1 1
     0.360393600     0.100000000     0.548585480 1 1 1
     0.393603940     0.100000000     0.585485850 1 1 1
     0.426814270     0.100000000     0.622386220 1 1 1
     0.460024600     0.100000000     0.659286590 1 1 1
     0.493234930     0.100000000     0.696186960 1 1 1
     0.526445260     0.100000000     0.733087330 1 1 1
     0.559655600     0.100000000     0.769987700 1 1 1
     0.592865930     0.100000000     0.806888070 1 1 1
     0.626076260     0.100000000     0.843788440 1 1 1
     0.659286590     0.100000000     0.880688800 1 1 1
     0.692496930     0.100000000     0.917589170 1 1 1
     0.725707260     0.100000000     0.954489540 1 1 1
     0.758917590     0.100000000     0.991389910 1 1 1
     0.098400980     0.100000000     0.146371460 1 1 1
     0.131611320     0.100000000     0.183271830 1 1 1
     0.164821650     0.100000000     0.220172200 1 1 1
     0.198031980     0.100000000     0.257072570 1 1 1
     0.231242310     0.100000000     0.293972940 1 1 1
     0.264452640     0.100000000     0.330873310 1 1 1
     0.297662980     0.100000000     0.367773680 1 1 1
     0.330873310     0.100000000     0.404674040 1 1 1
     0.364083640     0.100000000     0.441574410 1 1 1
     0.397293970     0.100000000     0.478474780 1 1 1
     0.430504310     0.100000000     0.515375150 1 1 1
     0.463714640     0.100000000     0.552275520 1 1 1
     0.496924970     0.100000000     0.589175890 1 1 1
     0.530135300     0.100000000     0.626076260 1 1 1
     0.563345630     0.100000000     0.662976630 1 1 1
     0.596555970     0.100000000     0.699877000 1 1 1
     0.629766300     0.100000000     0.736777370 1 1 1
     0.662976630     0.100000000     0.773677730 1 1 1
     0.696186960     0.100000000     0.810578100 1 1 1
     0.729397290     0.100000000     0.847478470 1 1 1
     0.762607630     0.100000000     0.884378840 1 1 1
     0.795817960     0.100000000     0.921279210 1 1 1
     0.829028290     0.100000000     0.958179580 1 1 1
     0.862238620     0.100000000     0.995079950 1 1 1
     0.068880690     0.100000000     0.002460020 1 1 1
     0.102091020     0.100000000     0.039360390 1 1 1
     0.135301350     0.100000000     0.076260760 1 1 1
     0.168511690     0.100000000     0.113161130 1 1 1
     0.201722020     0.100000000     0.150061500 1 1 1
     0.234932350     0.100000000     0.186961870 1 1 1
     0.268142680     0.100000000     0.223862240 1 1 1
     0.301353010     0.100000000     0.260762610 1 1 1
     0.334563350     0.100000000     0.297662970 1 1 1
     0.367773680     0.100000000     0.334563340 1 1 1
     0.400984010     0.100000000     0.371463710 1 1 1
     0.434194340     0.100000000     0.408364080 1 1 1
     0.467404670     0.100000000     0.445264450 1 1 1
     0.500615010     0.100000000     0.482164820 1 1 1
     0.533825340     0.100000000     0.519065190 1 1 1
     0.567035670     0.100000000     0.555965560 1 1 1
     0.600246000     0.100000000     0.592865930 1 1 1
     0.633456330     0.100000000     0.629766300 1 1 1
     0.666666670     0.100000000     0.666666660 1 1 1
     0.699877000     0.100000000     0.703567030 1 1 1
     0.733087330     0.100000000     0.740467400 1 1 1
     0.766297660     0.100000000     0.777367770 1 1 1
     0.799508000     0.100000000     0.814268140 1 1 1
     0.832718330     0.100000000     0.851168510 1 1 1
     0.865928660     0.100000000     0.888068880 1 1 1
     0.899138990     0.100000000     0.924969250 1 1 1
     0.932349320     0.100000000     0.961869620 1 1 1
     0.965559660     0.100000000     0.998769990 1 1 1
     0.172201720     0.100000000     0.006150060 1 1 1
     0.205412050     0.100000000     0.043050430 1 1 1
     0.238622390     0.100000000     0.079950800 1 1 1
     0.271832720     0.100000000     0.116851170 1 1 1
     0.305043050     0.100000000     0.153751540 1 1 1
     0.338253380     0.100000000     0.190651900 1 1 1
     0.371463710     0.100000000     0.227552270 1 1 1
     0.404674050     0.100000000     0.264452640 1 1 1
     0.437884380     0.100000000     0.301353010 1 1 1
     0.471094710     0.100000000     0.338253380 1 1 1
     0.504305040     0.100000000     0.375153750 1 1 1
     0.537515380     0.100000000     0.412054120 1 1 1
     0.570725710     0.100000000     0.448954490 1 1 1
     0.603936040     0.100000000     0.485854860 1 1 1
     0.637146370     0.100000000     0.522755230 1 1 1
     0.670356700     0.100000000     0.559655590 1 1 1
     0.703567040     0.100000000     0.596555960 1 1 1
     0.736777370     0.100000000     0.633456330 1 1 1
     0.769987700     0.100000000     0.670356700 1 1 1
     0.803198030     0.100000000     0.707257070 1 1 1
     0.836408360     0.100000000     0.744157440 1 1 1
     0.869618700     0.100000000     0.781057810 1 1 1
     0.902829030     0.100000000     0.817958180 1 1 1
     0.936039360     0.100000000     0.854858550 1 1 1
     0.969249690     0.100000000     0.891758920 1 1 1
     0.002460020     0.100000000     0.928659280 1 1 1
     0.035670360     0.100000000     0.965559650 1 1 1
     0.275522760     0.100000000     0.009840100 1 1 1
     0.308733090     0.100000000     0.046740470 1 1 1
     0.341943420     0.100000000     0.083640830 1 1 1
     0.375153750     0.100000000     0.120541200 1 1 1
     0.408364080     0.100000000     0.157441570 1 1 1
     0.441574420     0.100000000     0.194341940 1 1 1
     0.474784750     0.100000000     0.231242310 1 1 1
     0.507995080     0.100000000     0.268142680 1 1 1
     0.541205410     0.100000000     0.305043050 1 1 1
     0.574415740     0.100000000     0.341943420 1 1 1
     0.607626080     0.100000000     0.378843790 1 1 1
     0.640836410     0.100000000     0.415744160 1 1 1
     0.674046740     0.100000000     0.452644520 1 1 1
     0.707257070     0.100000000     0.489544890 1 1 1
     0.740467400     0.100000000     0.526445260 1 1 1
     0.773677740     0.100000000     0.563345630 1 1 1
     0.806888070     0.100000000     0.600246000 1 1 1
     0.840098400     0.100000000     0.637146370 1 1 1
     0.873308730     0.100000000     0.674046740 1 1 1
     0.906519070     0.100000000     0.710947110 1 1 1
     0.939729400     0.100000000     0.747847480 1 1 1
     0.972939730     0.100000000     0.784747850 1 1 1
     0.006150060     0.100000000     0.821648210 1 1 1
     0.039360390     0.100000000     0.858548580 1 1 1
     0.378843790     0.100000000     0.013530130 1 1 1
     0.412054120     0.100000000     0.050430500 1 1 1
     0.445264450     0.100000000     0.087330870 1 1 1
     0.478474780     0.100000000     0.124231240 1 1 1
     0.511685120     0.100000000     0.161131610 1 1 1
     0.544895450     0.100000000     0.198031980 1 1 1
     0.578105780     0.100000000     0.234932350 1 1 1
     0.611316110     0.100000000     0.271832720 1 1 1
     0.644526450     0.100000000     0.308733090 1 1 1
     0.677736780     0.100000000     0.345633450 1 1 1
     0.710947110     0.100000000     0.382533820 1 1 1
     0.744157440     0.100000000     0.419434190 1 1 1
     0.777367770     0.100000000     0.456334560 1 1 1
     0.810578110     0.100000000     0.493234930 1 1 1
     0.843788440     0.100000000     0.530135300 1 1 1
     0.876998770     0.100000000     0.567035670 1 1 1
     0.910209100     0.100000000     0.603936040 1 1 1
     0.943419430     0.100000000     0.640836410 1 1 1
     0.976629770     0.100000000     0.677736780 1 1 1
     0.009840100     0.100000000     0.714637140 1 1 1
     0.043050430     0.100000000     0.751537510 1 1 1
     0.482164820     0.100000000     0.017220170 1 1 1
     0.515375150     0.100000000     0.054120540 1 1 1
     0.548585490     0.100000000     0.091020910 1 1 1
     0.581795820     0.100000000     0.127921280 1 1 1
     0.615006150     0.100000000     0.164821650 1 1 1
     0.648216480     0.100000000     0.201722020 1 1 1
     0.681426810     0.100000000     0.238622380 1 1 1
     0.714637150     0.100000000     0.275522750 1 1 1
     0.747847480     0.100000000     0.312423120 1 1 1
     0.781057810     0.100000000     0.349323490 1 1 1
     0.814268140     0.100000000     0.386223860 1 1 1
     0.847478470     0.100000000     0.423124230 1 1 1
     0.880688810     0.100000000     0.460024600 1 1 1
     0.913899140     0.100000000     0.496924970 1 1 1
     0.947109470     0.100000000     0.533825340 1 1 1
     0.980319800     0.100000000     0.570725710 1 1 1
     0.013530140     0.100000000     0.607626070 1 1 1
     0.046740470     0.100000000     0.644526440 1 1 1
     0.585485850     0.100000000     0.020910210 1 1 1
     0.618696190     0.100000000     0.057810580 1 1 1
     0.651906520     0.100000000     0.094710940 1 1 1
     0.685116850     0.100000000     0.131611310 1 1 1
     0.718327180     0.100000000     0.168511680 1 1 1
     0.751537520     0.100000000     0.205412050 1 1 1
     0.784747850     0.100000000     0.242312420 1 1 1
     0.817958180     0.100000000     0.279212790 1 1 1
     0.851168510     0.100000000     0.316113160 1 1 1
     0.884378840     0.100000000     0.353013530 1 1 1
     0.917589180     0.100000000     0.389913900 1 1 1
     0.950799510     0.100000000     0.426814270 1 1 1
     0.984009840     0.100000000     0.463714640 1 1 1
     0.017220170     0.100000000     0.500615000 1 1 1
     0.050430500     0.100000000     0.537515370 1 1 1
     0.688806890     0.100000000     0.024600240 1 1 1
     0.722017220     0.100000000     0.061500610 1 1 1
     0.755227550     0.100000000     0.098400980 1 1 1
     0.788437880     0.100000000     0.135301350 1 1 1
     0.821648220     0.100000000     0.172201720 1 1 1
     0.854858550     0.100000000     0.209102090 1 1 1
     0.888068880     0.100000000     0.246002460 1 1 1
     0.921279210     0.100000000     0.282902830 1 1 1
     0.954489550     0.100000000     0.319803200 1 1 1
     0.987699880     0.100000000     0.356703560 1 1 1
     0.020910210     0.100000000     0.393603930 1 1 1
     0.054120540     0.100000000     0.430504300 1 1 1
     0.792127920     0.100000000     0.028290280 1 1 1
     0.825338250     0.100000000     0.065190650 1 1 1
     0.858548590     0.100000000     0.102091020 1 1 1
     0.891758920     0.100000000     0.138991390 1 1 1
     0.924969250     0.100000000     0.175891760 1 1 1
     0.958179580     0.100000000     0.212792130 1 1 1
     0.991389910     0.100000000     0.249692490 1 1 1
     0.024600250     0.100000000     0.286592860 1 1 1
     0.057810580     0.100000000     0.323493230 1 1 1
     0.895448950     0.100000000     0.031980320 1 1 1
     0.928659290     0.100000000     0.068880690 1 1 1
     0.961869620     0.100000000     0.105781060 1 1 1
     0.995079950     0.100000000     0.142681420 1 1 1
     0.028290280     0.100000000     0.179581790 1 1 1
     0.061500620     0.100000000     0.216482160 1 1 1