ATOMIC_SPECIES
C 6.000 ./C_ONCV_PBE-1.0.upf

NUMERICAL_ORBITAL
./C_gga_8au_100Ry_2s2p1d.orb

LATTICE_CONSTANT
1.889716

LATTICE_VECTORS
       79.93375000       44.72977909       0.00000000
       1.22975000       91.58954767       0.00000000
       0.00000000       0.00000000       30.00000000

ATOMIC_POSITIONS
Direct

C
0.0
5548
     0.00072098     0.95313627     0.10000000 1 1 1
     0.01586157     0.96899784     0.10000000 1 1 1
     0.03100216     0.98485941     0.10000000 1 1 1
     0.00144196     0.90627253     0.10000000 1 1 1
     0.01658255     0.92213410     0.10000000 1 1 1
     0.03172314     0.93799567     0.10000000 1 1 1
     0.04686373     0.95385725     0.10000000 1 1 1
     0.06200433     0.96971882     0.10000000 1 1 1
     0.07714492     0.98558039     0.10000000 1 1 1
     0.00216294     0.85940880     0.10000000 1 1 1
     0.01730353     0.87527037     0.10000000 1 1 1
     0.03244412     0.89113194     0.10000000 1 1 1
     0.04758472     0.90699351     0.10000000 1 1 1
     0.06272531     0.92285508     0.10000000 1 1 1
     0.07786590     0.93871665     0.10000000 1 1 1
     0.09300649     0.95457823     0.10000000 1 1 1
     0.10814708     0.97043980     0.10000000 1 1 1
     0.12328767     0.98630137     0.10000000 1 1 1
     0.00288392     0.81254506     0.10000000 1 1 1
     0.01802451     0.82840663     0.10000000 1 1 1
     0.03316510     0.84426820     0.10000000 1 1 1
     0.04830570     0.86012978     0.10000000 1 1 1
     0.06344629     0.87599135     0.10000000 1 1 1
     0.07858688     0.89185292     0.10000000 1 1 1
     0.09372747     0.90771449     0.10000000 1 1 1
     0.10886806     0.92357606     0.10000000 1 1 1
     0.12400865     0.93943764     0.10000000 1 1 1
     0.13914924     0.95529921     0.10000000 1 1 1
     0.15428983     0.97116078     0.10000000 1 1 1
     0.16943043     0.98702235     0.10000000 1 1 1
     0.00360490     0.76568133     0.10000000 1 1 1
     0.01874549     0.78154290     0.10000000 1 1 1
     0.03388609     0.79740447     0.10000000 1 1 1
     0.04902668     0.81326604     0.10000000 1 1 1
     0.06416727     0.82912761     0.10000000 1 1 1
     0.07930786     0.84498919     0.10000000 1 1 1
     0.09444845     0.86085076     0.10000000 1 1 1
     0.10958904     0.87671233     0.10000000 1 1 1
     0.12472963     0.89257390     0.10000000 1 1 1
     0.13987022     0.90843547     0.10000000 1 1 1
     0.15501081     0.92429704     0.10000000 1 1 1
     0.17015141     0.94015862     0.10000000 1 1 1
     0.18529200     0.95602019     0.10000000 1 1 1
     0.20043259     0.97188176     0.10000000 1 1 1
     0.21557318     0.98774333     0.10000000 1 1 1
     0.00432588     0.71881759     0.10000000 1 1 1
     0.01946647     0.73467916     0.10000000 1 1 1
     0.03460707     0.75054074     0.10000000 1 1 1
     0.04974766     0.76640231     0.10000000 1 1 1
     0.06488825     0.78226388     0.10000000 1 1 1
     0.08002884     0.79812545     0.10000000 1 1 1
     0.09516943     0.81398702     0.10000000 1 1 1
     0.11031002     0.82984859     0.10000000 1 1 1
     0.12545061     0.84571017     0.10000000 1 1 1
     0.14059120     0.86157174     0.10000000 1 1 1
     0.15573180     0.87743331     0.10000000 1 1 1
     0.17087239     0.89329488     0.10000000 1 1 1
     0.18601298     0.90915645     0.10000000 1 1 1
     0.20115357     0.92501802     0.10000000 1 1 1
     0.21629416     0.94087960     0.10000000 1 1 1
     0.23143475     0.95674117     0.10000000 1 1 1
     0.24657534     0.97260274     0.10000000 1 1 1
     0.26171593     0.98846431     0.10000000 1 1 1
     0.00504686     0.67195386     0.10000000 1 1 1
     0.02018745     0.68781543     0.10000000 1 1 1
     0.03532805     0.70367700     0.10000000 1 1 1
     0.05046864     0.71953857     0.10000000 1 1 1
     0.06560923     0.73540014     0.10000000 1 1 1
     0.08074982     0.75126172     0.10000000 1 1 1
     0.09589041     0.76712329     0.10000000 1 1 1
     0.11103100     0.78298486     0.10000000 1 1 1
     0.12617159     0.79884643     0.10000000 1 1 1
     0.14131218     0.81470800     0.10000000 1 1 1
     0.15645278     0.83056957     0.10000000 1 1 1
     0.17159337     0.84643115     0.10000000 1 1 1
     0.18673396     0.86229272     0.10000000 1 1 1
     0.20187455     0.87815429     0.10000000 1 1 1
     0.21701514     0.89401586     0.10000000 1 1 1
     0.23215573     0.90987743     0.10000000 1 1 1
     0.24729632     0.92573901     0.10000000 1 1 1
     0.26243691     0.94160058     0.10000000 1 1 1
     0.27757751     0.95746215     0.10000000 1 1 1
     0.29271810     0.97332372     0.10000000 1 1 1
     0.30785869     0.98918529     0.10000000 1 1 1
     0.00576784     0.62509012     0.10000000 1 1 1
     0.02090844     0.64095169     0.10000000 1 1 1
     0.03604903     0.65681327     0.10000000 1 1 1
     0.05118962     0.67267484     0.10000000 1 1 1
     0.06633021     0.68853641     0.10000000 1 1 1
     0.08147080     0.70439798     0.10000000 1 1 1
     0.09661139     0.72025955     0.10000000 1 1 1
     0.11175198     0.73612112     0.10000000 1 1 1
     0.12689257     0.75198270     0.10000000 1 1 1
     0.14203317     0.76784427     0.10000000 1 1 1
     0.15717376     0.78370584     0.10000000 1 1 1
     0.17231435     0.79956741     0.10000000 1 1 1
     0.18745494     0.81542898     0.10000000 1 1 1
     0.20259553     0.83129056     0.10000000 1 1 1
     0.21773612     0.84715213     0.10000000 1 1 1
     0.23287671     0.86301370     0.10000000 1 1 1
     0.24801730     0.87887527     0.10000000 1 1 1
     0.26315789     0.89473684     0.10000000 1 1 1
     0.27829849     0.91059841     0.10000000 1 1 1
     0.29343908     0.92645999     0.10000000 1 1 1
     0.30857967     0.94232156     0.10000000 1 1 1
     0.32372026     0.95818313     0.10000000 1 1 1
     0.33886085     0.97404470     0.10000000 1 1 1
     0.35400144     0.98990627     0.10000000 1 1 1
     0.00648882     0.57822639     0.10000000 1 1 1
     0.02162942     0.59408796     0.10000000 1 1 1
     0.03677001     0.60994953     0.10000000 1 1 1
     0.05191060     0.62581110     0.10000000 1 1 1
     0.06705119     0.64167267     0.10000000 1 1 1
     0.08219178     0.65753425     0.10000000 1 1 1
     0.09733237     0.67339582     0.10000000 1 1 1
     0.11247296     0.68925739     0.10000000 1 1 1
     0.12761355     0.70511896     0.10000000 1 1 1
     0.14275415     0.72098053     0.10000000 1 1 1
     0.15789474     0.73684211     0.10000000 1 1 1
     0.17303533     0.75270368     0.10000000 1 1 1
     0.18817592     0.76856525     0.10000000 1 1 1
     0.20331651     0.78442682     0.10000000 1 1 1
     0.21845710     0.80028839     0.10000000 1 1 1
     0.23359769     0.81614996     0.10000000 1 1 1
     0.24873828     0.83201154     0.10000000 1 1 1
     0.26387888     0.84787311     0.10000000 1 1 1
     0.27901947     0.86373468     0.10000000 1 1 1
     0.29416006     0.87959625     0.10000000 1 1 1
     0.30930065     0.89545782     0.10000000 1 1 1
     0.32444124     0.91131939     0.10000000 1 1 1
     0.33958183     0.92718097     0.10000000 1 1 1
     0.35472242     0.94304254     0.10000000 1 1 1
     0.36986301     0.95890411     0.10000000 1 1 1
     0.38500360     0.97476568     0.10000000 1 1 1
     0.40014420     0.99062725     0.10000000 1 1 1
     0.00720981     0.53136265     0.10000000 1 1 1
     0.02235040     0.54722422     0.10000000 1 1 1
     0.03749099     0.56308580     0.10000000 1 1 1
     0.05263158     0.57894737     0.10000000 1 1 1
     0.06777217     0.59480894     0.10000000 1 1 1
     0.08291276     0.61067051     0.10000000 1 1 1
     0.09805335     0.62653208     0.10000000 1 1 1
     0.11319394     0.64239366     0.10000000 1 1 1
     0.12833453     0.65825523     0.10000000 1 1 1
     0.14347513     0.67411680     0.10000000 1 1 1
     0.15861572     0.68997837     0.10000000 1 1 1
     0.17375631     0.70583994     0.10000000 1 1 1
     0.18889690     0.72170151     0.10000000 1 1 1
     0.20403749     0.73756309     0.10000000 1 1 1
     0.21917808     0.75342466     0.10000000 1 1 1
     0.23431867     0.76928623     0.10000000 1 1 1
     0.24945926     0.78514780     0.10000000 1 1 1
     0.26459986     0.80100937     0.10000000 1 1 1
     0.27974045     0.81687094     0.10000000 1 1 1
     0.29488104     0.83273252     0.10000000 1 1 1
     0.31002163     0.84859409     0.10000000 1 1 1
     0.32516222     0.86445566     0.10000000 1 1 1
     0.34030281     0.88031723     0.10000000 1 1 1
     0.35544340     0.89617880     0.10000000 1 1 1
     0.37058399     0.91204037     0.10000000 1 1 1
     0.38572459     0.92790195     0.10000000 1 1 1
     0.40086518     0.94376352     0.10000000 1 1 1
     0.41600577     0.95962509     0.10000000 1 1 1
     0.43114636     0.97548666     0.10000000 1 1 1
     0.44628695     0.99134823     0.10000000 1 1 1
     0.00793079     0.48449892     0.10000000 1 1 1
     0.02307138     0.50036049     0.10000000 1 1 1
     0.03821197     0.51622206     0.10000000 1 1 1
     0.05335256     0.53208363     0.10000000 1 1 1
     0.06849315     0.54794521     0.10000000 1 1 1
     0.08363374     0.56380678     0.10000000 1 1 1
     0.09877433     0.57966835     0.10000000 1 1 1
     0.11391492     0.59552992     0.10000000 1 1 1
     0.12905552     0.61139149     0.10000000 1 1 1
     0.14419611     0.62725306     0.10000000 1 1 1
     0.15933670     0.64311464     0.10000000 1 1 1
     0.17447729     0.65897621     0.10000000 1 1 1
     0.18961788     0.67483778     0.10000000 1 1 1
     0.20475847     0.69069935     0.10000000 1 1 1
     0.21989906     0.70656092     0.10000000 1 1 1
     0.23503965     0.72242249     0.10000000 1 1 1
     0.25018025     0.73828407     0.10000000 1 1 1
     0.26532084     0.75414564     0.10000000 1 1 1
     0.28046143     0.77000721     0.10000000 1 1 1
     0.29560202     0.78586878     0.10000000 1 1 1
     0.31074261     0.80173035     0.10000000 1 1 1
     0.32588320     0.81759193     0.10000000 1 1 1
     0.34102379     0.83345350     0.10000000 1 1 1
     0.35616438     0.84931507     0.10000000 1 1 1
     0.37130497     0.86517664     0.10000000 1 1 1
     0.38644557     0.88103821     0.10000000 1 1 1
     0.40158616     0.89689978     0.10000000 1 1 1
     0.41672675     0.91276136     0.10000000 1 1 1
     0.43186734     0.92862293     0.10000000 1 1 1
     0.44700793     0.94448450     0.10000000 1 1 1
     0.46214852     0.96034607     0.10000000 1 1 1
     0.47728911     0.97620764     0.10000000 1 1 1
     0.49242970     0.99206921     0.10000000 1 1 1
     0.00865177     0.43763518     0.10000000 1 1 1
     0.02379236     0.45349676     0.10000000 1 1 1
     0.03893295     0.46935833     0.10000000 1 1 1
     0.05407354     0.48521990     0.10000000 1 1 1
     0.06921413     0.50108147     0.10000000 1 1 1
     0.08435472     0.51694304     0.10000000 1 1 1
     0.09949531     0.53280461     0.10000000 1 1 1
     0.11463590     0.54866619     0.10000000 1 1 1
     0.12977650     0.56452776     0.10000000 1 1 1
     0.14491709     0.58038933     0.10000000 1 1 1
     0.16005768     0.59625090     0.10000000 1 1 1
     0.17519827     0.61211247     0.10000000 1 1 1
     0.19033886     0.62797404     0.10000000 1 1 1
     0.20547945     0.64383562     0.10000000 1 1 1
     0.22062004     0.65969719     0.10000000 1 1 1
     0.23576063     0.67555876     0.10000000 1 1 1
     0.25090123     0.69142033     0.10000000 1 1 1
     0.26604182     0.70728190     0.10000000 1 1 1
     0.28118241     0.72314348     0.10000000 1 1 1
     0.29632300     0.73900505     0.10000000 1 1 1
     0.31146359     0.75486662     0.10000000 1 1 1
     0.32660418     0.77072819     0.10000000 1 1 1
     0.34174477     0.78658976     0.10000000 1 1 1
     0.35688536     0.80245133     0.10000000 1 1 1
     0.37202596     0.81831291     0.10000000 1 1 1
     0.38716655     0.83417448     0.10000000 1 1 1
     0.40230714     0.85003605     0.10000000 1 1 1
     0.41744773     0.86589762     0.10000000 1 1 1
     0.43258832     0.88175919     0.10000000 1 1 1
     0.44772891     0.89762076     0.10000000 1 1 1
     0.46286950     0.91348234     0.10000000 1 1 1
     0.47801009     0.92934391     0.10000000 1 1 1
     0.49315068     0.94520548     0.10000000 1 1 1
     0.50829128     0.96106705     0.10000000 1 1 1
     0.52343187     0.97692862     0.10000000 1 1 1
     0.53857246     0.99279019     0.10000000 1 1 1
     0.00937275     0.39077145     0.10000000 1 1 1
     0.02451334     0.40663302     0.10000000 1 1 1
     0.03965393     0.42249459     0.10000000 1 1 1
     0.05479452     0.43835616     0.10000000 1 1 1
     0.06993511     0.45421774     0.10000000 1 1 1
     0.08507570     0.47007931     0.10000000 1 1 1
     0.10021629     0.48594088     0.10000000 1 1 1
     0.11535689     0.50180245     0.10000000 1 1 1
     0.13049748     0.51766402     0.10000000 1 1 1
     0.14563807     0.53352559     0.10000000 1 1 1
     0.16077866     0.54938717     0.10000000 1 1 1
     0.17591925     0.56524874     0.10000000 1 1 1
     0.19105984     0.58111031     0.10000000 1 1 1
     0.20620043     0.59697188     0.10000000 1 1 1
     0.22134102     0.61283345     0.10000000 1 1 1
     0.23648161     0.62869503     0.10000000 1 1 1
     0.25162221     0.64455660     0.10000000 1 1 1
     0.26676280     0.66041817     0.10000000 1 1 1
     0.28190339     0.67627974     0.10000000 1 1 1
     0.29704398     0.69214131     0.10000000 1 1 1
     0.31218457     0.70800288     0.10000000 1 1 1
     0.32732516     0.72386446     0.10000000 1 1 1
     0.34246575     0.73972603     0.10000000 1 1 1
     0.35760634     0.75558760     0.10000000 1 1 1
     0.37274694     0.77144917     0.10000000 1 1 1
     0.38788753     0.78731074     0.10000000 1 1 1
     0.40302812     0.80317231     0.10000000 1 1 1
     0.41816871     0.81903389     0.10000000 1 1 1
     0.43330930     0.83489546     0.10000000 1 1 1
     0.44844989     0.85075703     0.10000000 1 1 1
     0.46359048     0.86661860     0.10000000 1 1 1
     0.47873107     0.88248017     0.10000000 1 1 1
     0.49387167     0.89834174     0.10000000 1 1 1
     0.50901226     0.91420332     0.10000000 1 1 1
     0.52415285     0.93006489     0.10000000 1 1 1
     0.53929344     0.94592646     0.10000000 1 1 1
     0.55443403     0.96178803     0.10000000 1 1 1
     0.56957462     0.97764960     0.10000000 1 1 1
     0.58471521     0.99351118     0.10000000 1 1 1
     0.01009373     0.34390771     0.10000000 1 1 1
     0.02523432     0.35976929     0.10000000 1 1 1
     0.04037491     0.37563086     0.10000000 1 1 1
     0.05551550     0.39149243     0.10000000 1 1 1
     0.07065609     0.40735400     0.10000000 1 1 1
     0.08579668     0.42321557     0.10000000 1 1 1
     0.10093727     0.43907714     0.10000000 1 1 1
     0.11607787     0.45493872     0.10000000 1 1 1
     0.13121846     0.47080029     0.10000000 1 1 1
     0.14635905     0.48666186     0.10000000 1 1 1
     0.16149964     0.50252343     0.10000000 1 1 1
     0.17664023     0.51838500     0.10000000 1 1 1
     0.19178082     0.53424658     0.10000000 1 1 1
     0.20692141     0.55010815     0.10000000 1 1 1
     0.22206200     0.56596972     0.10000000 1 1 1
     0.23720260     0.58183129     0.10000000 1 1 1
     0.25234319     0.59769286     0.10000000 1 1 1
     0.26748378     0.61355443     0.10000000 1 1 1
     0.28262437     0.62941601     0.10000000 1 1 1
     0.29776496     0.64527758     0.10000000 1 1 1
     0.31290555     0.66113915     0.10000000 1 1 1
     0.32804614     0.67700072     0.10000000 1 1 1
     0.34318673     0.69286229     0.10000000 1 1 1
     0.35832733     0.70872386     0.10000000 1 1 1
     0.37346792     0.72458544     0.10000000 1 1 1
     0.38860851     0.74044701     0.10000000 1 1 1
     0.40374910     0.75630858     0.10000000 1 1 1
     0.41888969     0.77217015     0.10000000 1 1 1
     0.43403028     0.78803172     0.10000000 1 1 1
     0.44917087     0.80389329     0.10000000 1 1 1
     0.46431146     0.81975487     0.10000000 1 1 1
     0.47945205     0.83561644     0.10000000 1 1 1
     0.49459265     0.85147801     0.10000000 1 1 1
     0.50973324     0.86733958     0.10000000 1 1 1
     0.52487383     0.88320115     0.10000000 1 1 1
     0.54001442     0.89906273     0.10000000 1 1 1
     0.55515501     0.91492430     0.10000000 1 1 1
     0.57029560     0.93078587     0.10000000 1 1 1
     0.58543619     0.94664744     0.10000000 1 1 1
     0.60057678     0.96250901     0.10000000 1 1 1
     0.61571738     0.97837058     0.10000000 1 1 1
     0.63085797     0.99423216     0.10000000 1 1 1
     0.01081471     0.29704398     0.10000000 1 1 1
     0.02595530     0.31290555     0.10000000 1 1 1
     0.04109589     0.32876712     0.10000000 1 1 1
     0.05623648     0.34462870     0.10000000 1 1 1
     0.07137707     0.36049027     0.10000000 1 1 1
     0.08651766     0.37635184     0.10000000 1 1 1
     0.10165826     0.39221341     0.10000000 1 1 1
     0.11679885     0.40807498     0.10000000 1 1 1
     0.13193944     0.42393655     0.10000000 1 1 1
     0.14708003     0.43979813     0.10000000 1 1 1
     0.16222062     0.45565970     0.10000000 1 1 1
     0.17736121     0.47152127     0.10000000 1 1 1
     0.19250180     0.48738284     0.10000000 1 1 1
     0.20764239     0.50324441     0.10000000 1 1 1
     0.22278298     0.51910598     0.10000000 1 1 1
     0.23792358     0.53496756     0.10000000 1 1 1
     0.25306417     0.55082913     0.10000000 1 1 1
     0.26820476     0.56669070     0.10000000 1 1 1
     0.28334535     0.58255227     0.10000000 1 1 1
     0.29848594     0.59841384     0.10000000 1 1 1
     0.31362653     0.61427541     0.10000000 1 1 1
     0.32876712     0.63013699     0.10000000 1 1 1
     0.34390771     0.64599856     0.10000000 1 1 1
     0.35904831     0.66186013     0.10000000 1 1 1
     0.37418890     0.67772170     0.10000000 1 1 1
     0.38932949     0.69358327     0.10000000 1 1 1
     0.40447008     0.70944484     0.10000000 1 1 1
     0.41961067     0.72530642     0.10000000 1 1 1
     0.43475126     0.74116799     0.10000000 1 1 1
     0.44989185     0.75702956     0.10000000 1 1 1
     0.46503244     0.77289113     0.10000000 1 1 1
     0.48017304     0.78875270     0.10000000 1 1 1
     0.49531363     0.80461428     0.10000000 1 1 1
     0.51045422     0.82047585     0.10000000 1 1 1
     0.52559481     0.83633742     0.10000000 1 1 1
     0.54073540     0.85219899     0.10000000 1 1 1
     0.55587599     0.86806056     0.10000000 1 1 1
     0.57101658     0.88392213     0.10000000 1 1 1
     0.58615717     0.89978371     0.10000000 1 1 1
     0.60129776     0.91564528     0.10000000 1 1 1
     0.61643836     0.93150685     0.10000000 1 1 1
     0.63157895     0.94736842     0.10000000 1 1 1
     0.64671954     0.96322999     0.10000000 1 1 1
     0.66186013     0.97909156     0.10000000 1 1 1
     0.67700072     0.99495314     0.10000000 1 1 1
     0.01153569     0.25018025     0.10000000 1 1 1
     0.02667628     0.26604182     0.10000000 1 1 1
     0.04181687     0.28190339     0.10000000 1 1 1
     0.05695746     0.29776496     0.10000000 1 1 1
     0.07209805     0.31362653     0.10000000 1 1 1
     0.08723864     0.32948810     0.10000000 1 1 1
     0.10237924     0.34534968     0.10000000 1 1 1
     0.11751983     0.36121125     0.10000000 1 1 1
     0.13266042     0.37707282     0.10000000 1 1 1
     0.14780101     0.39293439     0.10000000 1 1 1
     0.16294160     0.40879596     0.10000000 1 1 1
     0.17808219     0.42465753     0.10000000 1 1 1
     0.19322278     0.44051911     0.10000000 1 1 1
     0.20836337     0.45638068     0.10000000 1 1 1
     0.22350397     0.47224225     0.10000000 1 1 1
     0.23864456     0.48810382     0.10000000 1 1 1
     0.25378515     0.50396539     0.10000000 1 1 1
     0.26892574     0.51982696     0.10000000 1 1 1
     0.28406633     0.53568854     0.10000000 1 1 1
     0.29920692     0.55155011     0.10000000 1 1 1
     0.31434751     0.56741168     0.10000000 1 1 1
     0.32948810     0.58327325     0.10000000 1 1 1
     0.34462870     0.59913482     0.10000000 1 1 1
     0.35976929     0.61499640     0.10000000 1 1 1
     0.37490988     0.63085797     0.10000000 1 1 1
     0.39005047     0.64671954     0.10000000 1 1 1
     0.40519106     0.66258111     0.10000000 1 1 1
     0.42033165     0.67844268     0.10000000 1 1 1
     0.43547224     0.69430425     0.10000000 1 1 1
     0.45061283     0.71016583     0.10000000 1 1 1
     0.46575342     0.72602740     0.10000000 1 1 1
     0.48089402     0.74188897     0.10000000 1 1 1
     0.49603461     0.75775054     0.10000000 1 1 1
     0.51117520     0.77361211     0.10000000 1 1 1
     0.52631579     0.78947368     0.10000000 1 1 1
     0.54145638     0.80533526     0.10000000 1 1 1
     0.55659697     0.82119683     0.10000000 1 1 1
     0.57173756     0.83705840     0.10000000 1 1 1
     0.58687815     0.85291997     0.10000000 1 1 1
     0.60201875     0.86878154     0.10000000 1 1 1
     0.61715934     0.88464311     0.10000000 1 1 1
     0.63229993     0.90050469     0.10000000 1 1 1
     0.64744052     0.91636626     0.10000000 1 1 1
     0.66258111     0.93222783     0.10000000 1 1 1
     0.67772170     0.94808940     0.10000000 1 1 1
     0.69286229     0.96395097     0.10000000 1 1 1
     0.70800288     0.97981255     0.10000000 1 1 1
     0.72314348     0.99567412     0.10000000 1 1 1
     0.01225667     0.20331651     0.10000000 1 1 1
     0.02739726     0.21917808     0.10000000 1 1 1
     0.04253785     0.23503965     0.10000000 1 1 1
     0.05767844     0.25090123     0.10000000 1 1 1
     0.07281903     0.26676280     0.10000000 1 1 1
     0.08795963     0.28262437     0.10000000 1 1 1
     0.10310022     0.29848594     0.10000000 1 1 1
     0.11824081     0.31434751     0.10000000 1 1 1
     0.13338140     0.33020908     0.10000000 1 1 1
     0.14852199     0.34607066     0.10000000 1 1 1
     0.16366258     0.36193223     0.10000000 1 1 1
     0.17880317     0.37779380     0.10000000 1 1 1
     0.19394376     0.39365537     0.10000000 1 1 1
     0.20908435     0.40951694     0.10000000 1 1 1
     0.22422495     0.42537851     0.10000000 1 1 1
     0.23936554     0.44124009     0.10000000 1 1 1
     0.25450613     0.45710166     0.10000000 1 1 1
     0.26964672     0.47296323     0.10000000 1 1 1
     0.28478731     0.48882480     0.10000000 1 1 1
     0.29992790     0.50468637     0.10000000 1 1 1
     0.31506849     0.52054795     0.10000000 1 1 1
     0.33020908     0.53640952     0.10000000 1 1 1
     0.34534968     0.55227109     0.10000000 1 1 1
     0.36049027     0.56813266     0.10000000 1 1 1
     0.37563086     0.58399423     0.10000000 1 1 1
     0.39077145     0.59985580     0.10000000 1 1 1
     0.40591204     0.61571738     0.10000000 1 1 1
     0.42105263     0.63157895     0.10000000 1 1 1
     0.43619322     0.64744052     0.10000000 1 1 1
     0.45133381     0.66330209     0.10000000 1 1 1
     0.46647441     0.67916366     0.10000000 1 1 1
     0.48161500     0.69502523     0.10000000 1 1 1
     0.49675559     0.71088681     0.10000000 1 1 1
     0.51189618     0.72674838     0.10000000 1 1 1
     0.52703677     0.74260995     0.10000000 1 1 1
     0.54217736     0.75847152     0.10000000 1 1 1
     0.55731795     0.77433309     0.10000000 1 1 1
     0.57245854     0.79019466     0.10000000 1 1 1
     0.58759913     0.80605624     0.10000000 1 1 1
     0.60273973     0.82191781     0.10000000 1 1 1
     0.61788032     0.83777938     0.10000000 1 1 1
     0.63302091     0.85364095     0.10000000 1 1 1
     0.64816150     0.86950252     0.10000000 1 1 1
     0.66330209     0.88536410     0.10000000 1 1 1
     0.67844268     0.90122567     0.10000000 1 1 1
     0.69358327     0.91708724     0.10000000 1 1 1
     0.70872386     0.93294881     0.10000000 1 1 1
     0.72386446     0.94881038     0.10000000 1 1 1
     0.73900505     0.96467195     0.10000000 1 1 1
     0.75414564     0.98053353     0.10000000 1 1 1
     0.76928623     0.99639510     0.10000000 1 1 1
     0.01297765     0.15645278     0.10000000 1 1 1
     0.02811824     0.17231435     0.10000000 1 1 1
     0.04325883     0.18817592     0.10000000 1 1 1
     0.05839942     0.20403749     0.10000000 1 1 1
     0.07354001     0.21989906     0.10000000 1 1 1
     0.08868061     0.23576063     0.10000000 1 1 1
     0.10382120     0.25162221     0.10000000 1 1 1
     0.11896179     0.26748378     0.10000000 1 1 1
     0.13410238     0.28334535     0.10000000 1 1 1
     0.14924297     0.29920692     0.10000000 1 1 1
     0.16438356     0.31506849     0.10000000 1 1 1
     0.17952415     0.33093006     0.10000000 1 1 1
     0.19466474     0.34679164     0.10000000 1 1 1
     0.20980534     0.36265321     0.10000000 1 1 1
     0.22494593     0.37851478     0.10000000 1 1 1
     0.24008652     0.39437635     0.10000000 1 1 1
     0.25522711     0.41023792     0.10000000 1 1 1
     0.27036770     0.42609950     0.10000000 1 1 1
     0.28550829     0.44196107     0.10000000 1 1 1
     0.30064888     0.45782264     0.10000000 1 1 1
     0.31578947     0.47368421     0.10000000 1 1 1
     0.33093006     0.48954578     0.10000000 1 1 1
     0.34607066     0.50540735     0.10000000 1 1 1
     0.36121125     0.52126893     0.10000000 1 1 1
     0.37635184     0.53713050     0.10000000 1 1 1
     0.39149243     0.55299207     0.10000000 1 1 1
     0.40663302     0.56885364     0.10000000 1 1 1
     0.42177361     0.58471521     0.10000000 1 1 1
     0.43691420     0.60057678     0.10000000 1 1 1
     0.45205479     0.61643836     0.10000000 1 1 1
     0.46719539     0.63229993     0.10000000 1 1 1
     0.48233598     0.64816150     0.10000000 1 1 1
     0.49747657     0.66402307     0.10000000 1 1 1
     0.51261716     0.67988464     0.10000000 1 1 1
     0.52775775     0.69574621     0.10000000 1 1 1
     0.54289834     0.71160779     0.10000000 1 1 1
     0.55803893     0.72746936     0.10000000 1 1 1
     0.57317952     0.74333093     0.10000000 1 1 1
     0.58832012     0.75919250     0.10000000 1 1 1
     0.60346071     0.77505407     0.10000000 1 1 1
     0.61860130     0.79091565     0.10000000 1 1 1
     0.63374189     0.80677722     0.10000000 1 1 1
     0.64888248     0.82263879     0.10000000 1 1 1
     0.66402307     0.83850036     0.10000000 1 1 1
     0.67916366     0.85436193     0.10000000 1 1 1
     0.69430425     0.87022350     0.10000000 1 1 1
     0.70944484     0.88608508     0.10000000 1 1 1
     0.72458544     0.90194665     0.10000000 1 1 1
     0.73972603     0.91780822     0.10000000 1 1 1
     0.75486662     0.93366979     0.10000000 1 1 1
     0.77000721     0.94953136     0.10000000 1 1 1
     0.78514780     0.96539293     0.10000000 1 1 1
     0.80028839     0.98125451     0.10000000 1 1 1
     0.81542898     0.99711608     0.10000000 1 1 1
     0.01369863     0.10958904     0.10000000 1 1 1
     0.02883922     0.12545061     0.10000000 1 1 1
     0.04397981     0.14131218     0.10000000 1 1 1
     0.05912040     0.15717376     0.10000000 1 1 1
     0.07426099     0.17303533     0.10000000 1 1 1
     0.08940159     0.18889690     0.10000000 1 1 1
     0.10454218     0.20475847     0.10000000 1 1 1
     0.11968277     0.22062004     0.10000000 1 1 1
     0.13482336     0.23648161     0.10000000 1 1 1
     0.14996395     0.25234319     0.10000000 1 1 1
     0.16510454     0.26820476     0.10000000 1 1 1
     0.18024513     0.28406633     0.10000000 1 1 1
     0.19538572     0.29992790     0.10000000 1 1 1
     0.21052632     0.31578947     0.10000000 1 1 1
     0.22566691     0.33165105     0.10000000 1 1 1
     0.24080750     0.34751262     0.10000000 1 1 1
     0.25594809     0.36337419     0.10000000 1 1 1
     0.27108868     0.37923576     0.10000000 1 1 1
     0.28622927     0.39509733     0.10000000 1 1 1
     0.30136986     0.41095890     0.10000000 1 1 1
     0.31651045     0.42682048     0.10000000 1 1 1
     0.33165105     0.44268205     0.10000000 1 1 1
     0.34679164     0.45854362     0.10000000 1 1 1
     0.36193223     0.47440519     0.10000000 1 1 1
     0.37707282     0.49026676     0.10000000 1 1 1
     0.39221341     0.50612833     0.10000000 1 1 1
     0.40735400     0.52198991     0.10000000 1 1 1
     0.42249459     0.53785148     0.10000000 1 1 1
     0.43763518     0.55371305     0.10000000 1 1 1
     0.45277578     0.56957462     0.10000000 1 1 1
     0.46791637     0.58543619     0.10000000 1 1 1
     0.48305696     0.60129776     0.10000000 1 1 1
     0.49819755     0.61715934     0.10000000 1 1 1
     0.51333814     0.63302091     0.10000000 1 1 1
     0.52847873     0.64888248     0.10000000 1 1 1
     0.54361932     0.66474405     0.10000000 1 1 1
     0.55875991     0.68060562     0.10000000 1 1 1
     0.57390050     0.69646720     0.10000000 1 1 1
     0.58904110     0.71232877     0.10000000 1 1 1
     0.60418169     0.72819034     0.10000000 1 1 1
     0.61932228     0.74405191     0.10000000 1 1 1
     0.63446287     0.75991348     0.10000000 1 1 1
     0.64960346     0.77577505     0.10000000 1 1 1
     0.66474405     0.79163663     0.10000000 1 1 1
     0.67988464     0.80749820     0.10000000 1 1 1
     0.69502523     0.82335977     0.10000000 1 1 1
     0.71016583     0.83922134     0.10000000 1 1 1
     0.72530642     0.85508291     0.10000000 1 1 1
     0.74044701     0.87094448     0.10000000 1 1 1
     0.75558760     0.88680606     0.10000000 1 1 1
     0.77072819     0.90266763     0.10000000 1 1 1
     0.78586878     0.91852920     0.10000000 1 1 1
     0.80100937     0.93439077     0.10000000 1 1 1
     0.81614996     0.95025234     0.10000000 1 1 1
     0.83129056     0.96611391     0.10000000 1 1 1
     0.84643115     0.98197549     0.10000000 1 1 1
     0.86157174     0.99783706     0.10000000 1 1 1