ATOMIC_SPECIES
C 6.000 /mnt/C_ONCV_PBE-1.0.upf

NUMERICAL_ORBITAL
/mnt/C_gga_8au_100Ry_2s2p1d.orb

LATTICE_CONSTANT
1.889716

LATTICE_VECTORS
       102.06925000       57.50971598       0.00000000
       1.22975000       117.14942143       0.00000000
       0.00000000       0.00000000       30.00000000

ATOMIC_POSITIONS
Direct

C
0.0
9076
     0.00044072     0.96342001     0.10000000 1 1 1
     0.01234024     0.97576025     0.10000000 1 1 1
     0.02423975     0.98810048     0.10000000 1 1 1
     0.00088145     0.92684002     0.10000000 1 1 1
     0.01278096     0.93918026     0.10000000 1 1 1
     0.02468048     0.95152049     0.10000000 1 1 1
     0.03657999     0.96386073     0.10000000 1 1 1
     0.04847951     0.97620097     0.10000000 1 1 1
     0.06037902     0.98854121     0.10000000 1 1 1
     0.00132217     0.89026003     0.10000000 1 1 1
     0.01322168     0.90260026     0.10000000 1 1 1
     0.02512120     0.91494050     0.10000000 1 1 1
     0.03702071     0.92728074     0.10000000 1 1 1
     0.04892023     0.93962098     0.10000000 1 1 1
     0.06081974     0.95196122     0.10000000 1 1 1
     0.07271926     0.96430145     0.10000000 1 1 1
     0.08461877     0.97664169     0.10000000 1 1 1
     0.09651829     0.98898193     0.10000000 1 1 1
     0.00176289     0.85368004     0.10000000 1 1 1
     0.01366241     0.86602027     0.10000000 1 1 1
     0.02556192     0.87836051     0.10000000 1 1 1
     0.03746144     0.89070075     0.10000000 1 1 1
     0.04936095     0.90304099     0.10000000 1 1 1
     0.06126047     0.91538123     0.10000000 1 1 1
     0.07315998     0.92772146     0.10000000 1 1 1
     0.08505950     0.94006170     0.10000000 1 1 1
     0.09695901     0.95240194     0.10000000 1 1 1
     0.10885853     0.96474218     0.10000000 1 1 1
     0.12075804     0.97708242     0.10000000 1 1 1
     0.13265756     0.98942265     0.10000000 1 1 1
     0.00220361     0.81710004     0.10000000 1 1 1
     0.01410313     0.82944028     0.10000000 1 1 1
     0.02600264     0.84178052     0.10000000 1 1 1
     0.03790216     0.85412076     0.10000000 1 1 1
     0.04980167     0.86646100     0.10000000 1 1 1
     0.06170119     0.87880123     0.10000000 1 1 1
     0.07360071     0.89114147     0.10000000 1 1 1
     0.08550022     0.90348171     0.10000000 1 1 1
     0.09739974     0.91582195     0.10000000 1 1 1
     0.10929925     0.92816219     0.10000000 1 1 1
     0.12119877     0.94050242     0.10000000 1 1 1
     0.13309828     0.95284266     0.10000000 1 1 1
     0.14499780     0.96518290     0.10000000 1 1 1
     0.15689731     0.97752314     0.10000000 1 1 1
     0.16879683     0.98986338     0.10000000 1 1 1
     0.00264434     0.78052005     0.10000000 1 1 1
     0.01454385     0.79286029     0.10000000 1 1 1
     0.02644337     0.80520053     0.10000000 1 1 1
     0.03834288     0.81754077     0.10000000 1 1 1
     0.05024240     0.82988100     0.10000000 1 1 1
     0.06214191     0.84222124     0.10000000 1 1 1
     0.07404143     0.85456148     0.10000000 1 1 1
     0.08594094     0.86690172     0.10000000 1 1 1
     0.09784046     0.87924196     0.10000000 1 1 1
     0.10973997     0.89158219     0.10000000 1 1 1
     0.12163949     0.90392243     0.10000000 1 1 1
     0.13353900     0.91626267     0.10000000 1 1 1
     0.14543852     0.92860291     0.10000000 1 1 1
     0.15733803     0.94094315     0.10000000 1 1 1
     0.16923755     0.95328338     0.10000000 1 1 1
     0.18113706     0.96562362     0.10000000 1 1 1
     0.19303658     0.97796386     0.10000000 1 1 1
     0.20493610     0.99030410     0.10000000 1 1 1
     0.00308506     0.74394006     0.10000000 1 1 1
     0.01498457     0.75628030     0.10000000 1 1 1
     0.02688409     0.76862054     0.10000000 1 1 1
     0.03878361     0.78096078     0.10000000 1 1 1
     0.05068312     0.79330101     0.10000000 1 1 1
     0.06258264     0.80564125     0.10000000 1 1 1
     0.07448215     0.81798149     0.10000000 1 1 1
     0.08638167     0.83032173     0.10000000 1 1 1
     0.09828118     0.84266197     0.10000000 1 1 1
     0.11018070     0.85500220     0.10000000 1 1 1
     0.12208021     0.86734244     0.10000000 1 1 1
     0.13397973     0.87968268     0.10000000 1 1 1
     0.14587924     0.89202292     0.10000000 1 1 1
     0.15777876     0.90436316     0.10000000 1 1 1
     0.16967827     0.91670339     0.10000000 1 1 1
     0.18157779     0.92904363     0.10000000 1 1 1
     0.19347730     0.94138387     0.10000000 1 1 1
     0.20537682     0.95372411     0.10000000 1 1 1
     0.21727633     0.96606435     0.10000000 1 1 1
     0.22917585     0.97840458     0.10000000 1 1 1
     0.24107536     0.99074482     0.10000000 1 1 1
     0.00352578     0.70736007     0.10000000 1 1 1
     0.01542530     0.71970031     0.10000000 1 1 1
     0.02732481     0.73204055     0.10000000 1 1 1
     0.03922433     0.74438078     0.10000000 1 1 1
     0.05112384     0.75672102     0.10000000 1 1 1
     0.06302336     0.76906126     0.10000000 1 1 1
     0.07492287     0.78140150     0.10000000 1 1 1
     0.08682239     0.79374174     0.10000000 1 1 1
     0.09872190     0.80608197     0.10000000 1 1 1
     0.11062142     0.81842221     0.10000000 1 1 1
     0.12252093     0.83076245     0.10000000 1 1 1
     0.13442045     0.84310269     0.10000000 1 1 1
     0.14631996     0.85544293     0.10000000 1 1 1
     0.15821948     0.86778316     0.10000000 1 1 1
     0.17011900     0.88012340     0.10000000 1 1 1
     0.18201851     0.89246364     0.10000000 1 1 1
     0.19391803     0.90480388     0.10000000 1 1 1
     0.20581754     0.91714412     0.10000000 1 1 1
     0.21771706     0.92948435     0.10000000 1 1 1
     0.22961657     0.94182459     0.10000000 1 1 1
     0.24151609     0.95416483     0.10000000 1 1 1
     0.25341560     0.96650507     0.10000000 1 1 1
     0.26531512     0.97884531     0.10000000 1 1 1
     0.27721463     0.99118554     0.10000000 1 1 1
     0.00396651     0.67078008     0.10000000 1 1 1
     0.01586602     0.68312032     0.10000000 1 1 1
     0.02776554     0.69546056     0.10000000 1 1 1
     0.03966505     0.70780079     0.10000000 1 1 1
     0.05156457     0.72014103     0.10000000 1 1 1
     0.06346408     0.73248127     0.10000000 1 1 1
     0.07536360     0.74482151     0.10000000 1 1 1
     0.08726311     0.75716175     0.10000000 1 1 1
     0.09916263     0.76950198     0.10000000 1 1 1
     0.11106214     0.78184222     0.10000000 1 1 1
     0.12296166     0.79418246     0.10000000 1 1 1
     0.13486117     0.80652270     0.10000000 1 1 1
     0.14676069     0.81886294     0.10000000 1 1 1
     0.15866020     0.83120317     0.10000000 1 1 1
     0.17055972     0.84354341     0.10000000 1 1 1
     0.18245923     0.85588365     0.10000000 1 1 1
     0.19435875     0.86822389     0.10000000 1 1 1
     0.20625826     0.88056413     0.10000000 1 1 1
     0.21815778     0.89290436     0.10000000 1 1 1
     0.23005729     0.90524460     0.10000000 1 1 1
     0.24195681     0.91758484     0.10000000 1 1 1
     0.25385632     0.92992508     0.10000000 1 1 1
     0.26575584     0.94226532     0.10000000 1 1 1
     0.27765535     0.95460555     0.10000000 1 1 1
     0.28955487     0.96694579     0.10000000 1 1 1
     0.30145439     0.97928603     0.10000000 1 1 1
     0.31335390     0.99162627     0.10000000 1 1 1
     0.00440723     0.63420009     0.10000000 1 1 1
     0.01630674     0.64654033     0.10000000 1 1 1
     0.02820626     0.65888056     0.10000000 1 1 1
     0.04010577     0.67122080     0.10000000 1 1 1
     0.05200529     0.68356104     0.10000000 1 1 1
     0.06390480     0.69590128     0.10000000 1 1 1
     0.07580432     0.70824152     0.10000000 1 1 1
     0.08770383     0.72058175     0.10000000 1 1 1
     0.09960335     0.73292199     0.10000000 1 1 1
     0.11150286     0.74526223     0.10000000 1 1 1
     0.12340238     0.75760247     0.10000000 1 1 1
     0.13530190     0.76994271     0.10000000 1 1 1
     0.14720141     0.78228294     0.10000000 1 1 1
     0.15910093     0.79462318     0.10000000 1 1 1
     0.17100044     0.80696342     0.10000000 1 1 1
     0.18289996     0.81930366     0.10000000 1 1 1
     0.19479947     0.83164390     0.10000000 1 1 1
     0.20669899     0.84398413     0.10000000 1 1 1
     0.21859850     0.85632437     0.10000000 1 1 1
     0.23049802     0.86866461     0.10000000 1 1 1
     0.24239753     0.88100485     0.10000000 1 1 1
     0.25429705     0.89334509     0.10000000 1 1 1
     0.26619656     0.90568532     0.10000000 1 1 1
     0.27809608     0.91802556     0.10000000 1 1 1
     0.28999559     0.93036580     0.10000000 1 1 1
     0.30189511     0.94270604     0.10000000 1 1 1
     0.31379462     0.95504628     0.10000000 1 1 1
     0.32569414     0.96738651     0.10000000 1 1 1
     0.33759365     0.97972675     0.10000000 1 1 1
     0.34949317     0.99206699     0.10000000 1 1 1
     0.00484795     0.59762010     0.10000000 1 1 1
     0.01674747     0.60996033     0.10000000 1 1 1
     0.02864698     0.62230057     0.10000000 1 1 1
     0.04054650     0.63464081     0.10000000 1 1 1
     0.05244601     0.64698105     0.10000000 1 1 1
     0.06434553     0.65932129     0.10000000 1 1 1
     0.07624504     0.67166152     0.10000000 1 1 1
     0.08814456     0.68400176     0.10000000 1 1 1
     0.10004407     0.69634200     0.10000000 1 1 1
     0.11194359     0.70868224     0.10000000 1 1 1
     0.12384310     0.72102248     0.10000000 1 1 1
     0.13574262     0.73336271     0.10000000 1 1 1
     0.14764213     0.74570295     0.10000000 1 1 1
     0.15954165     0.75804319     0.10000000 1 1 1
     0.17144116     0.77038343     0.10000000 1 1 1
     0.18334068     0.78272367     0.10000000 1 1 1
     0.19524019     0.79506390     0.10000000 1 1 1
     0.20713971     0.80740414     0.10000000 1 1 1
     0.21903922     0.81974438     0.10000000 1 1 1
     0.23093874     0.83208462     0.10000000 1 1 1
     0.24283825     0.84442486     0.10000000 1 1 1
     0.25473777     0.85676509     0.10000000 1 1 1
     0.26663729     0.86910533     0.10000000 1 1 1
     0.27853680     0.88144557     0.10000000 1 1 1
     0.29043632     0.89378581     0.10000000 1 1 1
     0.30233583     0.90612605     0.10000000 1 1 1
     0.31423535     0.91846628     0.10000000 1 1 1
     0.32613486     0.93080652     0.10000000 1 1 1
     0.33803438     0.94314676     0.10000000 1 1 1
     0.34993389     0.95548700     0.10000000 1 1 1
     0.36183341     0.96782724     0.10000000 1 1 1
     0.37373292     0.98016747     0.10000000 1 1 1
     0.38563244     0.99250771     0.10000000 1 1 1
     0.00528867     0.56104011     0.10000000 1 1 1
     0.01718819     0.57338034     0.10000000 1 1 1
     0.02908770     0.58572058     0.10000000 1 1 1
     0.04098722     0.59806082     0.10000000 1 1 1
     0.05288673     0.61040106     0.10000000 1 1 1
     0.06478625     0.62274130     0.10000000 1 1 1
     0.07668576     0.63508153     0.10000000 1 1 1
     0.08858528     0.64742177     0.10000000 1 1 1
     0.10048480     0.65976201     0.10000000 1 1 1
     0.11238431     0.67210225     0.10000000 1 1 1
     0.12428383     0.68444249     0.10000000 1 1 1
     0.13618334     0.69678272     0.10000000 1 1 1
     0.14808286     0.70912296     0.10000000 1 1 1
     0.15998237     0.72146320     0.10000000 1 1 1
     0.17188189     0.73380344     0.10000000 1 1 1
     0.18378140     0.74614368     0.10000000 1 1 1
     0.19568092     0.75848391     0.10000000 1 1 1
     0.20758043     0.77082415     0.10000000 1 1 1
     0.21947995     0.78316439     0.10000000 1 1 1
     0.23137946     0.79550463     0.10000000 1 1 1
     0.24327898     0.80784487     0.10000000 1 1 1
     0.25517849     0.82018510     0.10000000 1 1 1
     0.26707801     0.83252534     0.10000000 1 1 1
     0.27897752     0.84486558     0.10000000 1 1 1
     0.29087704     0.85720582     0.10000000 1 1 1
     0.30277655     0.86954606     0.10000000 1 1 1
     0.31467607     0.88188629     0.10000000 1 1 1
     0.32657558     0.89422653     0.10000000 1 1 1
     0.33847510     0.90656677     0.10000000 1 1 1
     0.35037461     0.91890701     0.10000000 1 1 1
     0.36227413     0.93124725     0.10000000 1 1 1
     0.37417364     0.94358748     0.10000000 1 1 1
     0.38607316     0.95592772     0.10000000 1 1 1
     0.39797268     0.96826796     0.10000000 1 1 1
     0.40987219     0.98060820     0.10000000 1 1 1
     0.42177171     0.99294844     0.10000000 1 1 1
     0.00572940     0.52446011     0.10000000 1 1 1
     0.01762891     0.53680035     0.10000000 1 1 1
     0.02952843     0.54914059     0.10000000 1 1 1
     0.04142794     0.56148083     0.10000000 1 1 1
     0.05332746     0.57382107     0.10000000 1 1 1
     0.06522697     0.58616130     0.10000000 1 1 1
     0.07712649     0.59850154     0.10000000 1 1 1
     0.08902600     0.61084178     0.10000000 1 1 1
     0.10092552     0.62318202     0.10000000 1 1 1
     0.11282503     0.63552226     0.10000000 1 1 1
     0.12472455     0.64786249     0.10000000 1 1 1
     0.13662406     0.66020273     0.10000000 1 1 1
     0.14852358     0.67254297     0.10000000 1 1 1
     0.16042309     0.68488321     0.10000000 1 1 1
     0.17232261     0.69722345     0.10000000 1 1 1
     0.18422212     0.70956368     0.10000000 1 1 1
     0.19612164     0.72190392     0.10000000 1 1 1
     0.20802115     0.73424416     0.10000000 1 1 1
     0.21992067     0.74658440     0.10000000 1 1 1
     0.23182019     0.75892464     0.10000000 1 1 1
     0.24371970     0.77126487     0.10000000 1 1 1
     0.25561922     0.78360511     0.10000000 1 1 1
     0.26751873     0.79594535     0.10000000 1 1 1
     0.27941825     0.80828559     0.10000000 1 1 1
     0.29131776     0.82062583     0.10000000 1 1 1
     0.30321728     0.83296606     0.10000000 1 1 1
     0.31511679     0.84530630     0.10000000 1 1 1
     0.32701631     0.85764654     0.10000000 1 1 1
     0.33891582     0.86998678     0.10000000 1 1 1
     0.35081534     0.88232702     0.10000000 1 1 1
     0.36271485     0.89466725     0.10000000 1 1 1
     0.37461437     0.90700749     0.10000000 1 1 1
     0.38651388     0.91934773     0.10000000 1 1 1
     0.39841340     0.93168797     0.10000000 1 1 1
     0.41031291     0.94402821     0.10000000 1 1 1
     0.42221243     0.95636844     0.10000000 1 1 1
     0.43411194     0.96870868     0.10000000 1 1 1
     0.44601146     0.98104892     0.10000000 1 1 1
     0.45791097     0.99338916     0.10000000 1 1 1
     0.00617012     0.48788012     0.10000000 1 1 1
     0.01806963     0.50022036     0.10000000 1 1 1
     0.02996915     0.51256060     0.10000000 1 1 1
     0.04186866     0.52490084     0.10000000 1 1 1
     0.05376818     0.53724108     0.10000000 1 1 1
     0.06566770     0.54958131     0.10000000 1 1 1
     0.07756721     0.56192155     0.10000000 1 1 1
     0.08946673     0.57426179     0.10000000 1 1 1
     0.10136624     0.58660203     0.10000000 1 1 1
     0.11326576     0.59894227     0.10000000 1 1 1
     0.12516527     0.61128250     0.10000000 1 1 1
     0.13706479     0.62362274     0.10000000 1 1 1
     0.14896430     0.63596298     0.10000000 1 1 1
     0.16086382     0.64830322     0.10000000 1 1 1
     0.17276333     0.66064346     0.10000000 1 1 1
     0.18466285     0.67298369     0.10000000 1 1 1
     0.19656236     0.68532393     0.10000000 1 1 1
     0.20846188     0.69766417     0.10000000 1 1 1
     0.22036139     0.71000441     0.10000000 1 1 1
     0.23226091     0.72234465     0.10000000 1 1 1
     0.24416042     0.73468488     0.10000000 1 1 1
     0.25605994     0.74702512     0.10000000 1 1 1
     0.26795945     0.75936536     0.10000000 1 1 1
     0.27985897     0.77170560     0.10000000 1 1 1
     0.29175848     0.78404584     0.10000000 1 1 1
     0.30365800     0.79638607     0.10000000 1 1 1
     0.31555751     0.80872631     0.10000000 1 1 1
     0.32745703     0.82106655     0.10000000 1 1 1
     0.33935654     0.83340679     0.10000000 1 1 1
     0.35125606     0.84574703     0.10000000 1 1 1
     0.36315558     0.85808726     0.10000000 1 1 1
     0.37505509     0.87042750     0.10000000 1 1 1
     0.38695461     0.88276774     0.10000000 1 1 1
     0.39885412     0.89510798     0.10000000 1 1 1
     0.41075364     0.90744822     0.10000000 1 1 1
     0.42265315     0.91978845     0.10000000 1 1 1
     0.43455267     0.93212869     0.10000000 1 1 1
     0.44645218     0.94446893     0.10000000 1 1 1
     0.45835170     0.95680917     0.10000000 1 1 1
     0.47025121     0.96914941     0.10000000 1 1 1
     0.48215073     0.98148964     0.10000000 1 1 1
     0.49405024     0.99382988     0.10000000 1 1 1
     0.00661084     0.45130013     0.10000000 1 1 1
     0.01851036     0.46364037     0.10000000 1 1 1
     0.03040987     0.47598061     0.10000000 1 1 1
     0.04230939     0.48832085     0.10000000 1 1 1
     0.05420890     0.50066108     0.10000000 1 1 1
     0.06610842     0.51300132     0.10000000 1 1 1
     0.07800793     0.52534156     0.10000000 1 1 1
     0.08990745     0.53768180     0.10000000 1 1 1
     0.10180696     0.55002204     0.10000000 1 1 1
     0.11370648     0.56236227     0.10000000 1 1 1
     0.12560599     0.57470251     0.10000000 1 1 1
     0.13750551     0.58704275     0.10000000 1 1 1
     0.14940502     0.59938299     0.10000000 1 1 1
     0.16130454     0.61172323     0.10000000 1 1 1
     0.17320405     0.62406346     0.10000000 1 1 1
     0.18510357     0.63640370     0.10000000 1 1 1
     0.19700309     0.64874394     0.10000000 1 1 1
     0.20890260     0.66108418     0.10000000 1 1 1
     0.22080212     0.67342442     0.10000000 1 1 1
     0.23270163     0.68576465     0.10000000 1 1 1
     0.24460115     0.69810489     0.10000000 1 1 1
     0.25650066     0.71044513     0.10000000 1 1 1
     0.26840018     0.72278537     0.10000000 1 1 1
     0.28029969     0.73512561     0.10000000 1 1 1
     0.29219921     0.74746584     0.10000000 1 1 1
     0.30409872     0.75980608     0.10000000 1 1 1
     0.31599824     0.77214632     0.10000000 1 1 1
     0.32789775     0.78448656     0.10000000 1 1 1
     0.33979727     0.79682680     0.10000000 1 1 1
     0.35169678     0.80916703     0.10000000 1 1 1
     0.36359630     0.82150727     0.10000000 1 1 1
     0.37549581     0.83384751     0.10000000 1 1 1
     0.38739533     0.84618775     0.10000000 1 1 1
     0.39929484     0.85852799     0.10000000 1 1 1
     0.41119436     0.87086822     0.10000000 1 1 1
     0.42309387     0.88320846     0.10000000 1 1 1
     0.43499339     0.89554870     0.10000000 1 1 1
     0.44689290     0.90788894     0.10000000 1 1 1
     0.45879242     0.92022918     0.10000000 1 1 1
     0.47069193     0.93256941     0.10000000 1 1 1
     0.48259145     0.94490965     0.10000000 1 1 1
     0.49449097     0.95724989     0.10000000 1 1 1
     0.50639048     0.96959013     0.10000000 1 1 1
     0.51829000     0.98193037     0.10000000 1 1 1
     0.53018951     0.99427060     0.10000000 1 1 1
     0.00705156     0.41472014     0.10000000 1 1 1
     0.01895108     0.42706038     0.10000000 1 1 1
     0.03085059     0.43940062     0.10000000 1 1 1
     0.04275011     0.45174086     0.10000000 1 1 1
     0.05464963     0.46408109     0.10000000 1 1 1
     0.06654914     0.47642133     0.10000000 1 1 1
     0.07844866     0.48876157     0.10000000 1 1 1
     0.09034817     0.50110181     0.10000000 1 1 1
     0.10224769     0.51344204     0.10000000 1 1 1
     0.11414720     0.52578228     0.10000000 1 1 1
     0.12604672     0.53812252     0.10000000 1 1 1
     0.13794623     0.55046276     0.10000000 1 1 1
     0.14984575     0.56280300     0.10000000 1 1 1
     0.16174526     0.57514323     0.10000000 1 1 1
     0.17364478     0.58748347     0.10000000 1 1 1
     0.18554429     0.59982371     0.10000000 1 1 1
     0.19744381     0.61216395     0.10000000 1 1 1
     0.20934332     0.62450419     0.10000000 1 1 1
     0.22124284     0.63684442     0.10000000 1 1 1
     0.23314235     0.64918466     0.10000000 1 1 1
     0.24504187     0.66152490     0.10000000 1 1 1
     0.25694138     0.67386514     0.10000000 1 1 1
     0.26884090     0.68620538     0.10000000 1 1 1
     0.28074041     0.69854561     0.10000000 1 1 1
     0.29263993     0.71088585     0.10000000 1 1 1
     0.30453944     0.72322609     0.10000000 1 1 1
     0.31643896     0.73556633     0.10000000 1 1 1
     0.32833848     0.74790657     0.10000000 1 1 1
     0.34023799     0.76024680     0.10000000 1 1 1
     0.35213751     0.77258704     0.10000000 1 1 1
     0.36403702     0.78492728     0.10000000 1 1 1
     0.37593654     0.79726752     0.10000000 1 1 1
     0.38783605     0.80960776     0.10000000 1 1 1
     0.39973557     0.82194799     0.10000000 1 1 1
     0.41163508     0.83428823     0.10000000 1 1 1
     0.42353460     0.84662847     0.10000000 1 1 1
     0.43543411     0.85896871     0.10000000 1 1 1
     0.44733363     0.87130895     0.10000000 1 1 1
     0.45923314     0.88364918     0.10000000 1 1 1
     0.47113266     0.89598942     0.10000000 1 1 1
     0.48303217     0.90832966     0.10000000 1 1 1
     0.49493169     0.92066990     0.10000000 1 1 1
     0.50683120     0.93301014     0.10000000 1 1 1
     0.51873072     0.94535037     0.10000000 1 1 1
     0.53063023     0.95769061     0.10000000 1 1 1
     0.54252975     0.97003085     0.10000000 1 1 1
     0.55442926     0.98237109     0.10000000 1 1 1
     0.56632878     0.99471133     0.10000000 1 1 1
     0.00749229     0.37814015     0.10000000 1 1 1
     0.01939180     0.39048039     0.10000000 1 1 1
     0.03129132     0.40282063     0.10000000 1 1 1
     0.04319083     0.41516086     0.10000000 1 1 1
     0.05509035     0.42750110     0.10000000 1 1 1
     0.06698986     0.43984134     0.10000000 1 1 1
     0.07888938     0.45218158     0.10000000 1 1 1
     0.09078889     0.46452182     0.10000000 1 1 1
     0.10268841     0.47686205     0.10000000 1 1 1
     0.11458792     0.48920229     0.10000000 1 1 1
     0.12648744     0.50154253     0.10000000 1 1 1
     0.13838695     0.51388277     0.10000000 1 1 1
     0.15028647     0.52622301     0.10000000 1 1 1
     0.16218599     0.53856324     0.10000000 1 1 1
     0.17408550     0.55090348     0.10000000 1 1 1
     0.18598502     0.56324372     0.10000000 1 1 1
     0.19788453     0.57558396     0.10000000 1 1 1
     0.20978405     0.58792420     0.10000000 1 1 1
     0.22168356     0.60026443     0.10000000 1 1 1
     0.23358308     0.61260467     0.10000000 1 1 1
     0.24548259     0.62494491     0.10000000 1 1 1
     0.25738211     0.63728515     0.10000000 1 1 1
     0.26928162     0.64962539     0.10000000 1 1 1
     0.28118114     0.66196562     0.10000000 1 1 1
     0.29308065     0.67430586     0.10000000 1 1 1
     0.30498017     0.68664610     0.10000000 1 1 1
     0.31687968     0.69898634     0.10000000 1 1 1
     0.32877920     0.71132658     0.10000000 1 1 1
     0.34067871     0.72366681     0.10000000 1 1 1
     0.35257823     0.73600705     0.10000000 1 1 1
     0.36447774     0.74834729     0.10000000 1 1 1
     0.37637726     0.76068753     0.10000000 1 1 1
     0.38827677     0.77302777     0.10000000 1 1 1
     0.40017629     0.78536800     0.10000000 1 1 1
     0.41207580     0.79770824     0.10000000 1 1 1
     0.42397532     0.81004848     0.10000000 1 1 1
     0.43587483     0.82238872     0.10000000 1 1 1
     0.44777435     0.83472896     0.10000000 1 1 1
     0.45967387     0.84706919     0.10000000 1 1 1
     0.47157338     0.85940943     0.10000000 1 1 1
     0.48347290     0.87174967     0.10000000 1 1 1
     0.49537241     0.88408991     0.10000000 1 1 1
     0.50727193     0.89643015     0.10000000 1 1 1
     0.51917144     0.90877038     0.10000000 1 1 1
     0.53107096     0.92111062     0.10000000 1 1 1
     0.54297047     0.93345086     0.10000000 1 1 1
     0.55486999     0.94579110     0.10000000 1 1 1
     0.56676950     0.95813134     0.10000000 1 1 1
     0.57866902     0.97047157     0.10000000 1 1 1
     0.59056853     0.98281181     0.10000000 1 1 1
     0.60246805     0.99515205     0.10000000 1 1 1
     0.00793301     0.34156016     0.10000000 1 1 1
     0.01983253     0.35390040     0.10000000 1 1 1
     0.03173204     0.36624063     0.10000000 1 1 1
     0.04363156     0.37858087     0.10000000 1 1 1
     0.05553107     0.39092111     0.10000000 1 1 1
     0.06743059     0.40326135     0.10000000 1 1 1
     0.07933010     0.41560159     0.10000000 1 1 1
     0.09122962     0.42794182     0.10000000 1 1 1
     0.10312913     0.44028206     0.10000000 1 1 1
     0.11502865     0.45262230     0.10000000 1 1 1
     0.12692816     0.46496254     0.10000000 1 1 1
     0.13882768     0.47730278     0.10000000 1 1 1
     0.15072719     0.48964301     0.10000000 1 1 1
     0.16262671     0.50198325     0.10000000 1 1 1
     0.17452622     0.51432349     0.10000000 1 1 1
     0.18642574     0.52666373     0.10000000 1 1 1
     0.19832525     0.53900397     0.10000000 1 1 1
     0.21022477     0.55134420     0.10000000 1 1 1
     0.22212428     0.56368444     0.10000000 1 1 1
     0.23402380     0.57602468     0.10000000 1 1 1
     0.24592331     0.58836492     0.10000000 1 1 1
     0.25782283     0.60070516     0.10000000 1 1 1
     0.26972234     0.61304539     0.10000000 1 1 1
     0.28162186     0.62538563     0.10000000 1 1 1
     0.29352138     0.63772587     0.10000000 1 1 1
     0.30542089     0.65006611     0.10000000 1 1 1
     0.31732041     0.66240635     0.10000000 1 1 1
     0.32921992     0.67474658     0.10000000 1 1 1
     0.34111944     0.68708682     0.10000000 1 1 1
     0.35301895     0.69942706     0.10000000 1 1 1
     0.36491847     0.71176730     0.10000000 1 1 1
     0.37681798     0.72410754     0.10000000 1 1 1
     0.38871750     0.73644777     0.10000000 1 1 1
     0.40061701     0.74878801     0.10000000 1 1 1
     0.41251653     0.76112825     0.10000000 1 1 1
     0.42441604     0.77346849     0.10000000 1 1 1
     0.43631556     0.78580873     0.10000000 1 1 1
     0.44821507     0.79814896     0.10000000 1 1 1
     0.46011459     0.81048920     0.10000000 1 1 1
     0.47201410     0.82282944     0.10000000 1 1 1
     0.48391362     0.83516968     0.10000000 1 1 1
     0.49581313     0.84750992     0.10000000 1 1 1
     0.50771265     0.85985015     0.10000000 1 1 1
     0.51961216     0.87219039     0.10000000 1 1 1
     0.53151168     0.88453063     0.10000000 1 1 1
     0.54341119     0.89687087     0.10000000 1 1 1
     0.55531071     0.90921111     0.10000000 1 1 1
     0.56721022     0.92155134     0.10000000 1 1 1
     0.57910974     0.93389158     0.10000000 1 1 1
     0.59100926     0.94623182     0.10000000 1 1 1
     0.60290877     0.95857206     0.10000000 1 1 1
     0.61480829     0.97091230     0.10000000 1 1 1
     0.62670780     0.98325253     0.10000000 1 1 1
     0.63860732     0.99559277     0.10000000 1 1 1
     0.00837373     0.30498017     0.10000000 1 1 1
     0.02027325     0.31732041     0.10000000 1 1 1
     0.03217276     0.32966064     0.10000000 1 1 1
     0.04407228     0.34200088     0.10000000 1 1 1
     0.05597179     0.35434112     0.10000000 1 1 1
     0.06787131     0.36668136     0.10000000 1 1 1
     0.07977082     0.37902160     0.10000000 1 1 1
     0.09167034     0.39136183     0.10000000 1 1 1
     0.10356985     0.40370207     0.10000000 1 1 1
     0.11546937     0.41604231     0.10000000 1 1 1
     0.12736888     0.42838255     0.10000000 1 1 1
     0.13926840     0.44072279     0.10000000 1 1 1
     0.15116792     0.45306302     0.10000000 1 1 1
     0.16306743     0.46540326     0.10000000 1 1 1
     0.17496695     0.47774350     0.10000000 1 1 1
     0.18686646     0.49008374     0.10000000 1 1 1
     0.19876598     0.50242398     0.10000000 1 1 1
     0.21066549     0.51476421     0.10000000 1 1 1
     0.22256501     0.52710445     0.10000000 1 1 1
     0.23446452     0.53944469     0.10000000 1 1 1
     0.24636404     0.55178493     0.10000000 1 1 1
     0.25826355     0.56412517     0.10000000 1 1 1
     0.27016307     0.57646540     0.10000000 1 1 1
     0.28206258     0.58880564     0.10000000 1 1 1
     0.29396210     0.60114588     0.10000000 1 1 1
     0.30586161     0.61348612     0.10000000 1 1 1
     0.31776113     0.62582636     0.10000000 1 1 1
     0.32966064     0.63816659     0.10000000 1 1 1
     0.34156016     0.65050683     0.10000000 1 1 1
     0.35345967     0.66284707     0.10000000 1 1 1
     0.36535919     0.67518731     0.10000000 1 1 1
     0.37725870     0.68752755     0.10000000 1 1 1
     0.38915822     0.69986778     0.10000000 1 1 1
     0.40105773     0.71220802     0.10000000 1 1 1
     0.41295725     0.72454826     0.10000000 1 1 1
     0.42485677     0.73688850     0.10000000 1 1 1
     0.43675628     0.74922874     0.10000000 1 1 1
     0.44865580     0.76156897     0.10000000 1 1 1
     0.46055531     0.77390921     0.10000000 1 1 1
     0.47245483     0.78624945     0.10000000 1 1 1
     0.48435434     0.79858969     0.10000000 1 1 1
     0.49625386     0.81092993     0.10000000 1 1 1
     0.50815337     0.82327016     0.10000000 1 1 1
     0.52005289     0.83561040     0.10000000 1 1 1
     0.53195240     0.84795064     0.10000000 1 1 1
     0.54385192     0.86029088     0.10000000 1 1 1
     0.55575143     0.87263112     0.10000000 1 1 1
     0.56765095     0.88497135     0.10000000 1 1 1
     0.57955046     0.89731159     0.10000000 1 1 1
     0.59144998     0.90965183     0.10000000 1 1 1
     0.60334949     0.92199207     0.10000000 1 1 1
     0.61524901     0.93433230     0.10000000 1 1 1
     0.62714852     0.94667254     0.10000000 1 1 1
     0.63904804     0.95901278     0.10000000 1 1 1
     0.65094755     0.97135302     0.10000000 1 1 1
     0.66284707     0.98369326     0.10000000 1 1 1
     0.67474658     0.99603349     0.10000000 1 1 1