ATOMIC_SPECIES
C 6.000 /mnt/C_ONCV_PBE-1.0.upf

NUMERICAL_ORBITAL
/mnt/C_gga_8au_100Ry_2s2p1d.orb

LATTICE_CONSTANT
1.889716

LATTICE_VECTORS
       6.14875000       2.12998948       0.00000000
       1.22975000       6.38996844       0.00000000
       0.00000000       0.00000000       30.00000000

ATOMIC_POSITIONS
Direct

C
0.0
28
     0.00000000     0.00000000     0.10000000 1 1 1
     0.14285714     0.28571429     0.10000000 1 1 1
     0.28571429     0.57142857     0.10000000 1 1 1
     0.42857143     0.85714286     0.10000000 1 1 1
     0.57142857     0.14285714     0.10000000 1 1 1
     0.71428571     0.42857143     0.10000000 1 1 1
     0.85714286     0.71428571     0.10000000 1 1 1
     0.38095238     0.09523808     0.10000000 1 1 1
     0.52380953     0.38095237     0.10000000 1 1 1
     0.66666667     0.66666665     0.10000000 1 1 1
     0.80952381     0.95238094     0.10000000 1 1 1
     0.95238096     0.23809522     0.10000000 1 1 1
     1.09523810     0.52380951     0.10000000 1 1 1
     1.23809524     0.80952380     0.10000000 1 1 1
     0.14285714     0.57142857     0.21361333 1 1 1
     0.42857143     0.71428571     0.21361333 1 1 1
     0.71428571     0.85714286     0.21361333 1 1 1
     0.00000000     0.00000000     0.21361333 1 1 1
     0.28571429     0.14285714     0.21361333 1 1 1
     0.57142857     0.28571429     0.21361333 1 1 1
     0.85714286     0.42857143     0.21361333 1 1 1
     0.61904762     0.47619046     0.21361333 1 1 1
     0.90476190     0.61904761     0.21361333 1 1 1
     1.19047619     0.76190475     0.21361333 1 1 1
     0.47619047     -0.09523811     0.21361333 1 1 1
     0.76190476     0.04761904     0.21361333 1 1 1
     1.04761905     0.19047618     0.21361333 1 1 1
     1.33333333     0.33333332     0.21361333 1 1 1
