ATOMIC_SPECIES
C 6.000 /mnt/C_ONCV_PBE-1.0.upf

NUMERICAL_ORBITAL
/mnt/C_gga_8au_100Ry_2s2p1d.orb

LATTICE_CONSTANT
1.889716

LATTICE_VECTORS
       105.75850000       59.63970546       0.00000000
       1.22975000       121.40940039       0.00000000
       0.00000000       0.00000000       30.00000000

ATOMIC_POSITIONS
Direct

C
0.0
9748
     0.00041034     0.96471071     0.10000000 1 1 1
     0.01189988     0.97661059     0.10000000 1 1 1
     0.02338941     0.98851046     0.10000000 1 1 1
     0.00082068     0.92942142     0.10000000 1 1 1
     0.01231022     0.94132130     0.10000000 1 1 1
     0.02379975     0.95322117     0.10000000 1 1 1
     0.03528929     0.96512105     0.10000000 1 1 1
     0.04677883     0.97702093     0.10000000 1 1 1
     0.05826836     0.98892080     0.10000000 1 1 1
     0.00123102     0.89413213     0.10000000 1 1 1
     0.01272056     0.90603201     0.10000000 1 1 1
     0.02421009     0.91793188     0.10000000 1 1 1
     0.03569963     0.92983176     0.10000000 1 1 1
     0.04718917     0.94173164     0.10000000 1 1 1
     0.05867870     0.95363151     0.10000000 1 1 1
     0.07016824     0.96553139     0.10000000 1 1 1
     0.08165778     0.97743127     0.10000000 1 1 1
     0.09314731     0.98933114     0.10000000 1 1 1
     0.00164136     0.85884284     0.10000000 1 1 1
     0.01313090     0.87074272     0.10000000 1 1 1
     0.02462043     0.88264259     0.10000000 1 1 1
     0.03610997     0.89454247     0.10000000 1 1 1
     0.04759951     0.90644235     0.10000000 1 1 1
     0.05908904     0.91834222     0.10000000 1 1 1
     0.07057858     0.93024210     0.10000000 1 1 1
     0.08206812     0.94214198     0.10000000 1 1 1
     0.09355765     0.95404185     0.10000000 1 1 1
     0.10504719     0.96594173     0.10000000 1 1 1
     0.11653673     0.97784161     0.10000000 1 1 1
     0.12802626     0.98974149     0.10000000 1 1 1
     0.00205170     0.82355355     0.10000000 1 1 1
     0.01354124     0.83545343     0.10000000 1 1 1
     0.02503078     0.84735330     0.10000000 1 1 1
     0.03652031     0.85925318     0.10000000 1 1 1
     0.04800985     0.87115306     0.10000000 1 1 1
     0.05949938     0.88305293     0.10000000 1 1 1
     0.07098892     0.89495281     0.10000000 1 1 1
     0.08247846     0.90685269     0.10000000 1 1 1
     0.09396799     0.91875256     0.10000000 1 1 1
     0.10545753     0.93065244     0.10000000 1 1 1
     0.11694707     0.94255232     0.10000000 1 1 1
     0.12843660     0.95445220     0.10000000 1 1 1
     0.13992614     0.96635207     0.10000000 1 1 1
     0.15141568     0.97825195     0.10000000 1 1 1
     0.16290521     0.99015183     0.10000000 1 1 1
     0.00246204     0.78826426     0.10000000 1 1 1
     0.01395158     0.80016414     0.10000000 1 1 1
     0.02544112     0.81206401     0.10000000 1 1 1
     0.03693065     0.82396389     0.10000000 1 1 1
     0.04842019     0.83586377     0.10000000 1 1 1
     0.05990973     0.84776364     0.10000000 1 1 1
     0.07139926     0.85966352     0.10000000 1 1 1
     0.08288880     0.87156340     0.10000000 1 1 1
     0.09437833     0.88346327     0.10000000 1 1 1
     0.10586787     0.89536315     0.10000000 1 1 1
     0.11735741     0.90726303     0.10000000 1 1 1
     0.12884694     0.91916291     0.10000000 1 1 1
     0.14033648     0.93106278     0.10000000 1 1 1
     0.15182602     0.94296266     0.10000000 1 1 1
     0.16331555     0.95486254     0.10000000 1 1 1
     0.17480509     0.96676241     0.10000000 1 1 1
     0.18629462     0.97866229     0.10000000 1 1 1
     0.19778416     0.99056217     0.10000000 1 1 1
     0.00287238     0.75297497     0.10000000 1 1 1
     0.01436192     0.76487485     0.10000000 1 1 1
     0.02585146     0.77677472     0.10000000 1 1 1
     0.03734099     0.78867460     0.10000000 1 1 1
     0.04883053     0.80057448     0.10000000 1 1 1
     0.06032007     0.81247435     0.10000000 1 1 1
     0.07180960     0.82437423     0.10000000 1 1 1
     0.08329914     0.83627411     0.10000000 1 1 1
     0.09478867     0.84817398     0.10000000 1 1 1
     0.10627821     0.86007386     0.10000000 1 1 1
     0.11776775     0.87197374     0.10000000 1 1 1
     0.12925728     0.88387362     0.10000000 1 1 1
     0.14074682     0.89577349     0.10000000 1 1 1
     0.15223636     0.90767337     0.10000000 1 1 1
     0.16372589     0.91957325     0.10000000 1 1 1
     0.17521543     0.93147312     0.10000000 1 1 1
     0.18670497     0.94337300     0.10000000 1 1 1
     0.19819450     0.95527288     0.10000000 1 1 1
     0.20968404     0.96717275     0.10000000 1 1 1
     0.22117357     0.97907263     0.10000000 1 1 1
     0.23266311     0.99097251     0.10000000 1 1 1
     0.00328272     0.71768568     0.10000000 1 1 1
     0.01477226     0.72958556     0.10000000 1 1 1
     0.02626180     0.74148543     0.10000000 1 1 1
     0.03775133     0.75338531     0.10000000 1 1 1
     0.04924087     0.76528519     0.10000000 1 1 1
     0.06073041     0.77718506     0.10000000 1 1 1
     0.07221994     0.78908494     0.10000000 1 1 1
     0.08370948     0.80098482     0.10000000 1 1 1
     0.09519902     0.81288469     0.10000000 1 1 1
     0.10668855     0.82478457     0.10000000 1 1 1
     0.11817809     0.83668445     0.10000000 1 1 1
     0.12966762     0.84858432     0.10000000 1 1 1
     0.14115716     0.86048420     0.10000000 1 1 1
     0.15264670     0.87238408     0.10000000 1 1 1
     0.16413623     0.88428396     0.10000000 1 1 1
     0.17562577     0.89618383     0.10000000 1 1 1
     0.18711531     0.90808371     0.10000000 1 1 1
     0.19860484     0.91998359     0.10000000 1 1 1
     0.21009438     0.93188346     0.10000000 1 1 1
     0.22158391     0.94378334     0.10000000 1 1 1
     0.23307345     0.95568322     0.10000000 1 1 1
     0.24456299     0.96758309     0.10000000 1 1 1
     0.25605252     0.97948297     0.10000000 1 1 1
     0.26754206     0.99138285     0.10000000 1 1 1
     0.00369307     0.68239639     0.10000000 1 1 1
     0.01518260     0.69429627     0.10000000 1 1 1
     0.02667214     0.70619614     0.10000000 1 1 1
     0.03816167     0.71809602     0.10000000 1 1 1
     0.04965121     0.72999590     0.10000000 1 1 1
     0.06114075     0.74189577     0.10000000 1 1 1
     0.07263028     0.75379565     0.10000000 1 1 1
     0.08411982     0.76569553     0.10000000 1 1 1
     0.09560936     0.77759540     0.10000000 1 1 1
     0.10709889     0.78949528     0.10000000 1 1 1
     0.11858843     0.80139516     0.10000000 1 1 1
     0.13007796     0.81329503     0.10000000 1 1 1
     0.14156750     0.82519491     0.10000000 1 1 1
     0.15305704     0.83709479     0.10000000 1 1 1
     0.16454657     0.84899467     0.10000000 1 1 1
     0.17603611     0.86089454     0.10000000 1 1 1
     0.18752565     0.87279442     0.10000000 1 1 1
     0.19901518     0.88469430     0.10000000 1 1 1
     0.21050472     0.89659417     0.10000000 1 1 1
     0.22199426     0.90849405     0.10000000 1 1 1
     0.23348379     0.92039393     0.10000000 1 1 1
     0.24497333     0.93229380     0.10000000 1 1 1
     0.25646286     0.94419368     0.10000000 1 1 1
     0.26795240     0.95609356     0.10000000 1 1 1
     0.27944194     0.96799343     0.10000000 1 1 1
     0.29093147     0.97989331     0.10000000 1 1 1
     0.30242101     0.99179319     0.10000000 1 1 1
     0.00410341     0.64710710     0.10000000 1 1 1
     0.01559294     0.65900698     0.10000000 1 1 1
     0.02708248     0.67090685     0.10000000 1 1 1
     0.03857201     0.68280673     0.10000000 1 1 1
     0.05006155     0.69470661     0.10000000 1 1 1
     0.06155109     0.70660648     0.10000000 1 1 1
     0.07304062     0.71850636     0.10000000 1 1 1
     0.08453016     0.73040624     0.10000000 1 1 1
     0.09601970     0.74230611     0.10000000 1 1 1
     0.10750923     0.75420599     0.10000000 1 1 1
     0.11899877     0.76610587     0.10000000 1 1 1
     0.13048831     0.77800574     0.10000000 1 1 1
     0.14197784     0.78990562     0.10000000 1 1 1
     0.15346738     0.80180550     0.10000000 1 1 1
     0.16495691     0.81370538     0.10000000 1 1 1
     0.17644645     0.82560525     0.10000000 1 1 1
     0.18793599     0.83750513     0.10000000 1 1 1
     0.19942552     0.84940501     0.10000000 1 1 1
     0.21091506     0.86130488     0.10000000 1 1 1
     0.22240460     0.87320476     0.10000000 1 1 1
     0.23389413     0.88510464     0.10000000 1 1 1
     0.24538367     0.89700451     0.10000000 1 1 1
     0.25687320     0.90890439     0.10000000 1 1 1
     0.26836274     0.92080427     0.10000000 1 1 1
     0.27985228     0.93270414     0.10000000 1 1 1
     0.29134181     0.94460402     0.10000000 1 1 1
     0.30283135     0.95650390     0.10000000 1 1 1
     0.31432089     0.96840378     0.10000000 1 1 1
     0.32581042     0.98030365     0.10000000 1 1 1
     0.33729996     0.99220353     0.10000000 1 1 1
     0.00451375     0.61181781     0.10000000 1 1 1
     0.01600328     0.62371769     0.10000000 1 1 1
     0.02749282     0.63561756     0.10000000 1 1 1
     0.03898236     0.64751744     0.10000000 1 1 1
     0.05047189     0.65941732     0.10000000 1 1 1
     0.06196143     0.67131719     0.10000000 1 1 1
     0.07345096     0.68321707     0.10000000 1 1 1
     0.08494050     0.69511695     0.10000000 1 1 1
     0.09643004     0.70701682     0.10000000 1 1 1
     0.10791957     0.71891670     0.10000000 1 1 1
     0.11940911     0.73081658     0.10000000 1 1 1
     0.13089865     0.74271645     0.10000000 1 1 1
     0.14238818     0.75461633     0.10000000 1 1 1
     0.15387772     0.76651621     0.10000000 1 1 1
     0.16536725     0.77841609     0.10000000 1 1 1
     0.17685679     0.79031596     0.10000000 1 1 1
     0.18834633     0.80221584     0.10000000 1 1 1
     0.19983586     0.81411572     0.10000000 1 1 1
     0.21132540     0.82601559     0.10000000 1 1 1
     0.22281494     0.83791547     0.10000000 1 1 1
     0.23430447     0.84981535     0.10000000 1 1 1
     0.24579401     0.86171522     0.10000000 1 1 1
     0.25728355     0.87361510     0.10000000 1 1 1
     0.26877308     0.88551498     0.10000000 1 1 1
     0.28026262     0.89741485     0.10000000 1 1 1
     0.29175215     0.90931473     0.10000000 1 1 1
     0.30324169     0.92121461     0.10000000 1 1 1
     0.31473123     0.93311449     0.10000000 1 1 1
     0.32622076     0.94501436     0.10000000 1 1 1
     0.33771030     0.95691424     0.10000000 1 1 1
     0.34919984     0.96881412     0.10000000 1 1 1
     0.36068937     0.98071399     0.10000000 1 1 1
     0.37217891     0.99261387     0.10000000 1 1 1
     0.00492409     0.57652852     0.10000000 1 1 1
     0.01641362     0.58842840     0.10000000 1 1 1
     0.02790316     0.60032827     0.10000000 1 1 1
     0.03939270     0.61222815     0.10000000 1 1 1
     0.05088223     0.62412803     0.10000000 1 1 1
     0.06237177     0.63602790     0.10000000 1 1 1
     0.07386130     0.64792778     0.10000000 1 1 1
     0.08535084     0.65982766     0.10000000 1 1 1
     0.09684038     0.67172753     0.10000000 1 1 1
     0.10832991     0.68362741     0.10000000 1 1 1
     0.11981945     0.69552729     0.10000000 1 1 1
     0.13130899     0.70742716     0.10000000 1 1 1
     0.14279852     0.71932704     0.10000000 1 1 1
     0.15428806     0.73122692     0.10000000 1 1 1
     0.16577760     0.74312680     0.10000000 1 1 1
     0.17726713     0.75502667     0.10000000 1 1 1
     0.18875667     0.76692655     0.10000000 1 1 1
     0.20024620     0.77882643     0.10000000 1 1 1
     0.21173574     0.79072630     0.10000000 1 1 1
     0.22322528     0.80262618     0.10000000 1 1 1
     0.23471481     0.81452606     0.10000000 1 1 1
     0.24620435     0.82642593     0.10000000 1 1 1
     0.25769389     0.83832581     0.10000000 1 1 1
     0.26918342     0.85022569     0.10000000 1 1 1
     0.28067296     0.86212556     0.10000000 1 1 1
     0.29216249     0.87402544     0.10000000 1 1 1
     0.30365203     0.88592532     0.10000000 1 1 1
     0.31514157     0.89782519     0.10000000 1 1 1
     0.32663110     0.90972507     0.10000000 1 1 1
     0.33812064     0.92162495     0.10000000 1 1 1
     0.34961018     0.93352483     0.10000000 1 1 1
     0.36109971     0.94542470     0.10000000 1 1 1
     0.37258925     0.95732458     0.10000000 1 1 1
     0.38407879     0.96922446     0.10000000 1 1 1
     0.39556832     0.98112433     0.10000000 1 1 1
     0.40705786     0.99302421     0.10000000 1 1 1
     0.00533443     0.54123923     0.10000000 1 1 1
     0.01682396     0.55313911     0.10000000 1 1 1
     0.02831350     0.56503898     0.10000000 1 1 1
     0.03980304     0.57693886     0.10000000 1 1 1
     0.05129257     0.58883874     0.10000000 1 1 1
     0.06278211     0.60073861     0.10000000 1 1 1
     0.07427165     0.61263849     0.10000000 1 1 1
     0.08576118     0.62453837     0.10000000 1 1 1
     0.09725072     0.63643824     0.10000000 1 1 1
     0.10874025     0.64833812     0.10000000 1 1 1
     0.12022979     0.66023800     0.10000000 1 1 1
     0.13171933     0.67213787     0.10000000 1 1 1
     0.14320886     0.68403775     0.10000000 1 1 1
     0.15469840     0.69593763     0.10000000 1 1 1
     0.16618794     0.70783751     0.10000000 1 1 1
     0.17767747     0.71973738     0.10000000 1 1 1
     0.18916701     0.73163726     0.10000000 1 1 1
     0.20065654     0.74353714     0.10000000 1 1 1
     0.21214608     0.75543701     0.10000000 1 1 1
     0.22363562     0.76733689     0.10000000 1 1 1
     0.23512515     0.77923677     0.10000000 1 1 1
     0.24661469     0.79113664     0.10000000 1 1 1
     0.25810423     0.80303652     0.10000000 1 1 1
     0.26959376     0.81493640     0.10000000 1 1 1
     0.28108330     0.82683627     0.10000000 1 1 1
     0.29257284     0.83873615     0.10000000 1 1 1
     0.30406237     0.85063603     0.10000000 1 1 1
     0.31555191     0.86253590     0.10000000 1 1 1
     0.32704144     0.87443578     0.10000000 1 1 1
     0.33853098     0.88633566     0.10000000 1 1 1
     0.35002052     0.89823554     0.10000000 1 1 1
     0.36151005     0.91013541     0.10000000 1 1 1
     0.37299959     0.92203529     0.10000000 1 1 1
     0.38448913     0.93393517     0.10000000 1 1 1
     0.39597866     0.94583504     0.10000000 1 1 1
     0.40746820     0.95773492     0.10000000 1 1 1
     0.41895773     0.96963480     0.10000000 1 1 1
     0.43044727     0.98153467     0.10000000 1 1 1
     0.44193681     0.99343455     0.10000000 1 1 1
     0.00574477     0.50594994     0.10000000 1 1 1
     0.01723430     0.51784982     0.10000000 1 1 1
     0.02872384     0.52974969     0.10000000 1 1 1
     0.04021338     0.54164957     0.10000000 1 1 1
     0.05170291     0.55354945     0.10000000 1 1 1
     0.06319245     0.56544932     0.10000000 1 1 1
     0.07468199     0.57734920     0.10000000 1 1 1
     0.08617152     0.58924908     0.10000000 1 1 1
     0.09766106     0.60114895     0.10000000 1 1 1
     0.10915059     0.61304883     0.10000000 1 1 1
     0.12064013     0.62494871     0.10000000 1 1 1
     0.13212967     0.63684858     0.10000000 1 1 1
     0.14361920     0.64874846     0.10000000 1 1 1
     0.15510874     0.66064834     0.10000000 1 1 1
     0.16659828     0.67254822     0.10000000 1 1 1
     0.17808781     0.68444809     0.10000000 1 1 1
     0.18957735     0.69634797     0.10000000 1 1 1
     0.20106689     0.70824785     0.10000000 1 1 1
     0.21255642     0.72014772     0.10000000 1 1 1
     0.22404596     0.73204760     0.10000000 1 1 1
     0.23553549     0.74394748     0.10000000 1 1 1
     0.24702503     0.75584735     0.10000000 1 1 1
     0.25851457     0.76774723     0.10000000 1 1 1
     0.27000410     0.77964711     0.10000000 1 1 1
     0.28149364     0.79154698     0.10000000 1 1 1
     0.29298318     0.80344686     0.10000000 1 1 1
     0.30447271     0.81534674     0.10000000 1 1 1
     0.31596225     0.82724661     0.10000000 1 1 1
     0.32745178     0.83914649     0.10000000 1 1 1
     0.33894132     0.85104637     0.10000000 1 1 1
     0.35043086     0.86294625     0.10000000 1 1 1
     0.36192039     0.87484612     0.10000000 1 1 1
     0.37340993     0.88674600     0.10000000 1 1 1
     0.38489947     0.89864588     0.10000000 1 1 1
     0.39638900     0.91054575     0.10000000 1 1 1
     0.40787854     0.92244563     0.10000000 1 1 1
     0.41936808     0.93434551     0.10000000 1 1 1
     0.43085761     0.94624538     0.10000000 1 1 1
     0.44234715     0.95814526     0.10000000 1 1 1
     0.45383668     0.97004514     0.10000000 1 1 1
     0.46532622     0.98194501     0.10000000 1 1 1
     0.47681576     0.99384489     0.10000000 1 1 1
     0.00615511     0.47066065     0.10000000 1 1 1
     0.01764465     0.48256053     0.10000000 1 1 1
     0.02913418     0.49446040     0.10000000 1 1 1
     0.04062372     0.50636028     0.10000000 1 1 1
     0.05211325     0.51826016     0.10000000 1 1 1
     0.06360279     0.53016003     0.10000000 1 1 1
     0.07509233     0.54205991     0.10000000 1 1 1
     0.08658186     0.55395979     0.10000000 1 1 1
     0.09807140     0.56585966     0.10000000 1 1 1
     0.10956094     0.57775954     0.10000000 1 1 1
     0.12105047     0.58965942     0.10000000 1 1 1
     0.13254001     0.60155929     0.10000000 1 1 1
     0.14402954     0.61345917     0.10000000 1 1 1
     0.15551908     0.62535905     0.10000000 1 1 1
     0.16700862     0.63725892     0.10000000 1 1 1
     0.17849815     0.64915880     0.10000000 1 1 1
     0.18998769     0.66105868     0.10000000 1 1 1
     0.20147723     0.67295856     0.10000000 1 1 1
     0.21296676     0.68485843     0.10000000 1 1 1
     0.22445630     0.69675831     0.10000000 1 1 1
     0.23594584     0.70865819     0.10000000 1 1 1
     0.24743537     0.72055806     0.10000000 1 1 1
     0.25892491     0.73245794     0.10000000 1 1 1
     0.27041444     0.74435782     0.10000000 1 1 1
     0.28190398     0.75625769     0.10000000 1 1 1
     0.29339352     0.76815757     0.10000000 1 1 1
     0.30488305     0.78005745     0.10000000 1 1 1
     0.31637259     0.79195732     0.10000000 1 1 1
     0.32786213     0.80385720     0.10000000 1 1 1
     0.33935166     0.81575708     0.10000000 1 1 1
     0.35084120     0.82765696     0.10000000 1 1 1
     0.36233073     0.83955683     0.10000000 1 1 1
     0.37382027     0.85145671     0.10000000 1 1 1
     0.38530981     0.86335659     0.10000000 1 1 1
     0.39679934     0.87525646     0.10000000 1 1 1
     0.40828888     0.88715634     0.10000000 1 1 1
     0.41977842     0.89905622     0.10000000 1 1 1
     0.43126795     0.91095609     0.10000000 1 1 1
     0.44275749     0.92285597     0.10000000 1 1 1
     0.45424703     0.93475585     0.10000000 1 1 1
     0.46573656     0.94665572     0.10000000 1 1 1
     0.47722610     0.95855560     0.10000000 1 1 1
     0.48871563     0.97045548     0.10000000 1 1 1
     0.50020517     0.98235535     0.10000000 1 1 1
     0.51169471     0.99425523     0.10000000 1 1 1
     0.00656545     0.43537136     0.10000000 1 1 1
     0.01805499     0.44727124     0.10000000 1 1 1
     0.02954452     0.45917111     0.10000000 1 1 1
     0.04103406     0.47107099     0.10000000 1 1 1
     0.05252359     0.48297087     0.10000000 1 1 1
     0.06401313     0.49487074     0.10000000 1 1 1
     0.07550267     0.50677062     0.10000000 1 1 1
     0.08699220     0.51867050     0.10000000 1 1 1
     0.09848174     0.53057037     0.10000000 1 1 1
     0.10997128     0.54247025     0.10000000 1 1 1
     0.12146081     0.55437013     0.10000000 1 1 1
     0.13295035     0.56627000     0.10000000 1 1 1
     0.14443989     0.57816988     0.10000000 1 1 1
     0.15592942     0.59006976     0.10000000 1 1 1
     0.16741896     0.60196963     0.10000000 1 1 1
     0.17890849     0.61386951     0.10000000 1 1 1
     0.19039803     0.62576939     0.10000000 1 1 1
     0.20188757     0.63766927     0.10000000 1 1 1
     0.21337710     0.64956914     0.10000000 1 1 1
     0.22486664     0.66146902     0.10000000 1 1 1
     0.23635618     0.67336890     0.10000000 1 1 1
     0.24784571     0.68526877     0.10000000 1 1 1
     0.25933525     0.69716865     0.10000000 1 1 1
     0.27082478     0.70906853     0.10000000 1 1 1
     0.28231432     0.72096840     0.10000000 1 1 1
     0.29380386     0.73286828     0.10000000 1 1 1
     0.30529339     0.74476816     0.10000000 1 1 1
     0.31678293     0.75666803     0.10000000 1 1 1
     0.32827247     0.76856791     0.10000000 1 1 1
     0.33976200     0.78046779     0.10000000 1 1 1
     0.35125154     0.79236767     0.10000000 1 1 1
     0.36274108     0.80426754     0.10000000 1 1 1
     0.37423061     0.81616742     0.10000000 1 1 1
     0.38572015     0.82806730     0.10000000 1 1 1
     0.39720968     0.83996717     0.10000000 1 1 1
     0.40869922     0.85186705     0.10000000 1 1 1
     0.42018876     0.86376693     0.10000000 1 1 1
     0.43167829     0.87566680     0.10000000 1 1 1
     0.44316783     0.88756668     0.10000000 1 1 1
     0.45465737     0.89946656     0.10000000 1 1 1
     0.46614690     0.91136643     0.10000000 1 1 1
     0.47763644     0.92326631     0.10000000 1 1 1
     0.48912597     0.93516619     0.10000000 1 1 1
     0.50061551     0.94706606     0.10000000 1 1 1
     0.51210505     0.95896594     0.10000000 1 1 1
     0.52359458     0.97086582     0.10000000 1 1 1
     0.53508412     0.98276570     0.10000000 1 1 1
     0.54657366     0.99466557     0.10000000 1 1 1
     0.00697579     0.40008207     0.10000000 1 1 1
     0.01846533     0.41198195     0.10000000 1 1 1
     0.02995486     0.42388182     0.10000000 1 1 1
     0.04144440     0.43578170     0.10000000 1 1 1
     0.05293394     0.44768158     0.10000000 1 1 1
     0.06442347     0.45958145     0.10000000 1 1 1
     0.07591301     0.47148133     0.10000000 1 1 1
     0.08740254     0.48338121     0.10000000 1 1 1
     0.09889208     0.49528108     0.10000000 1 1 1
     0.11038162     0.50718096     0.10000000 1 1 1
     0.12187115     0.51908084     0.10000000 1 1 1
     0.13336069     0.53098071     0.10000000 1 1 1
     0.14485023     0.54288059     0.10000000 1 1 1
     0.15633976     0.55478047     0.10000000 1 1 1
     0.16782930     0.56668034     0.10000000 1 1 1
     0.17931883     0.57858022     0.10000000 1 1 1
     0.19080837     0.59048010     0.10000000 1 1 1
     0.20229791     0.60237998     0.10000000 1 1 1
     0.21378744     0.61427985     0.10000000 1 1 1
     0.22527698     0.62617973     0.10000000 1 1 1
     0.23676652     0.63807961     0.10000000 1 1 1
     0.24825605     0.64997948     0.10000000 1 1 1
     0.25974559     0.66187936     0.10000000 1 1 1
     0.27123513     0.67377924     0.10000000 1 1 1
     0.28272466     0.68567911     0.10000000 1 1 1
     0.29421420     0.69757899     0.10000000 1 1 1
     0.30570373     0.70947887     0.10000000 1 1 1
     0.31719327     0.72137874     0.10000000 1 1 1
     0.32868281     0.73327862     0.10000000 1 1 1
     0.34017234     0.74517850     0.10000000 1 1 1
     0.35166188     0.75707838     0.10000000 1 1 1
     0.36315142     0.76897825     0.10000000 1 1 1
     0.37464095     0.78087813     0.10000000 1 1 1
     0.38613049     0.79277801     0.10000000 1 1 1
     0.39762002     0.80467788     0.10000000 1 1 1
     0.40910956     0.81657776     0.10000000 1 1 1
     0.42059910     0.82847764     0.10000000 1 1 1
     0.43208863     0.84037751     0.10000000 1 1 1
     0.44357817     0.85227739     0.10000000 1 1 1
     0.45506771     0.86417727     0.10000000 1 1 1
     0.46655724     0.87607714     0.10000000 1 1 1
     0.47804678     0.88797702     0.10000000 1 1 1
     0.48953632     0.89987690     0.10000000 1 1 1
     0.50102585     0.91177677     0.10000000 1 1 1
     0.51251539     0.92367665     0.10000000 1 1 1
     0.52400492     0.93557653     0.10000000 1 1 1
     0.53549446     0.94747641     0.10000000 1 1 1
     0.54698400     0.95937628     0.10000000 1 1 1
     0.55847353     0.97127616     0.10000000 1 1 1
     0.56996307     0.98317604     0.10000000 1 1 1
     0.58145261     0.99507591     0.10000000 1 1 1
     0.00738613     0.36479278     0.10000000 1 1 1
     0.01887567     0.37669265     0.10000000 1 1 1
     0.03036520     0.38859253     0.10000000 1 1 1
     0.04185474     0.40049241     0.10000000 1 1 1
     0.05334428     0.41239229     0.10000000 1 1 1
     0.06483381     0.42429216     0.10000000 1 1 1
     0.07632335     0.43619204     0.10000000 1 1 1
     0.08781288     0.44809192     0.10000000 1 1 1
     0.09930242     0.45999179     0.10000000 1 1 1
     0.11079196     0.47189167     0.10000000 1 1 1
     0.12228149     0.48379155     0.10000000 1 1 1
     0.13377103     0.49569142     0.10000000 1 1 1
     0.14526057     0.50759130     0.10000000 1 1 1
     0.15675010     0.51949118     0.10000000 1 1 1
     0.16823964     0.53139105     0.10000000 1 1 1
     0.17972918     0.54329093     0.10000000 1 1 1
     0.19121871     0.55519081     0.10000000 1 1 1
     0.20270825     0.56709069     0.10000000 1 1 1
     0.21419778     0.57899056     0.10000000 1 1 1
     0.22568732     0.59089044     0.10000000 1 1 1
     0.23717686     0.60279032     0.10000000 1 1 1
     0.24866639     0.61469019     0.10000000 1 1 1
     0.26015593     0.62659007     0.10000000 1 1 1
     0.27164547     0.63848995     0.10000000 1 1 1
     0.28313500     0.65038982     0.10000000 1 1 1
     0.29462454     0.66228970     0.10000000 1 1 1
     0.30611407     0.67418958     0.10000000 1 1 1
     0.31760361     0.68608945     0.10000000 1 1 1
     0.32909315     0.69798933     0.10000000 1 1 1
     0.34058268     0.70988921     0.10000000 1 1 1
     0.35207222     0.72178908     0.10000000 1 1 1
     0.36356176     0.73368896     0.10000000 1 1 1
     0.37505129     0.74558884     0.10000000 1 1 1
     0.38654083     0.75748872     0.10000000 1 1 1
     0.39803037     0.76938859     0.10000000 1 1 1
     0.40951990     0.78128847     0.10000000 1 1 1
     0.42100944     0.79318835     0.10000000 1 1 1
     0.43249897     0.80508822     0.10000000 1 1 1
     0.44398851     0.81698810     0.10000000 1 1 1
     0.45547805     0.82888798     0.10000000 1 1 1
     0.46696758     0.84078785     0.10000000 1 1 1
     0.47845712     0.85268773     0.10000000 1 1 1
     0.48994666     0.86458761     0.10000000 1 1 1
     0.50143619     0.87648748     0.10000000 1 1 1
     0.51292573     0.88838736     0.10000000 1 1 1
     0.52441526     0.90028724     0.10000000 1 1 1
     0.53590480     0.91218712     0.10000000 1 1 1
     0.54739434     0.92408699     0.10000000 1 1 1
     0.55888387     0.93598687     0.10000000 1 1 1
     0.57037341     0.94788675     0.10000000 1 1 1
     0.58186295     0.95978662     0.10000000 1 1 1
     0.59335248     0.97168650     0.10000000 1 1 1
     0.60484202     0.98358638     0.10000000 1 1 1
     0.61633156     0.99548625     0.10000000 1 1 1
     0.00779647     0.32950349     0.10000000 1 1 1
     0.01928601     0.34140336     0.10000000 1 1 1
     0.03077554     0.35330324     0.10000000 1 1 1
     0.04226508     0.36520312     0.10000000 1 1 1
     0.05375462     0.37710300     0.10000000 1 1 1
     0.06524415     0.38900287     0.10000000 1 1 1
     0.07673369     0.40090275     0.10000000 1 1 1
     0.08822323     0.41280263     0.10000000 1 1 1
     0.09971276     0.42470250     0.10000000 1 1 1
     0.11120230     0.43660238     0.10000000 1 1 1
     0.12269183     0.44850226     0.10000000 1 1 1
     0.13418137     0.46040213     0.10000000 1 1 1
     0.14567091     0.47230201     0.10000000 1 1 1
     0.15716044     0.48420189     0.10000000 1 1 1
     0.16864998     0.49610176     0.10000000 1 1 1
     0.18013952     0.50800164     0.10000000 1 1 1
     0.19162905     0.51990152     0.10000000 1 1 1
     0.20311859     0.53180140     0.10000000 1 1 1
     0.21460812     0.54370127     0.10000000 1 1 1
     0.22609766     0.55560115     0.10000000 1 1 1
     0.23758720     0.56750103     0.10000000 1 1 1
     0.24907673     0.57940090     0.10000000 1 1 1
     0.26056627     0.59130078     0.10000000 1 1 1
     0.27205581     0.60320066     0.10000000 1 1 1
     0.28354534     0.61510053     0.10000000 1 1 1
     0.29503488     0.62700041     0.10000000 1 1 1
     0.30652442     0.63890029     0.10000000 1 1 1
     0.31801395     0.65080016     0.10000000 1 1 1
     0.32950349     0.66270004     0.10000000 1 1 1
     0.34099302     0.67459992     0.10000000 1 1 1
     0.35248256     0.68649979     0.10000000 1 1 1
     0.36397210     0.69839967     0.10000000 1 1 1
     0.37546163     0.71029955     0.10000000 1 1 1
     0.38695117     0.72219943     0.10000000 1 1 1
     0.39844071     0.73409930     0.10000000 1 1 1
     0.40993024     0.74599918     0.10000000 1 1 1
     0.42141978     0.75789906     0.10000000 1 1 1
     0.43290931     0.76979893     0.10000000 1 1 1
     0.44439885     0.78169881     0.10000000 1 1 1
     0.45588839     0.79359869     0.10000000 1 1 1
     0.46737792     0.80549856     0.10000000 1 1 1
     0.47886746     0.81739844     0.10000000 1 1 1
     0.49035700     0.82929832     0.10000000 1 1 1
     0.50184653     0.84119819     0.10000000 1 1 1
     0.51333607     0.85309807     0.10000000 1 1 1
     0.52482561     0.86499795     0.10000000 1 1 1
     0.53631514     0.87689783     0.10000000 1 1 1
     0.54780468     0.88879770     0.10000000 1 1 1
     0.55929421     0.90069758     0.10000000 1 1 1
     0.57078375     0.91259746     0.10000000 1 1 1
     0.58227329     0.92449733     0.10000000 1 1 1
     0.59376282     0.93639721     0.10000000 1 1 1
     0.60525236     0.94829709     0.10000000 1 1 1
     0.61674190     0.96019696     0.10000000 1 1 1
     0.62823143     0.97209684     0.10000000 1 1 1
     0.63972097     0.98399672     0.10000000 1 1 1
     0.65121050     0.99589659     0.10000000 1 1 1