ATOMIC_SPECIES
C 6.000 /mnt/C_ONCV_PBE-1.0.upf

NUMERICAL_ORBITAL
/mnt/C_gga_8au_100Ry_2s2p1d.orb

LATTICE_CONSTANT
1.889716

LATTICE_VECTORS
       87.31225000       48.98975805       0.00000000
       1.22975000       100.10950559       0.00000000
       0.00000000       0.00000000       30.00000000

ATOMIC_POSITIONS
Direct

C
0.0
6628
     0.00060350     0.95715148     0.10000000 1 1 1
     0.01448401     0.97163549     0.10000000 1 1 1
     0.02836451     0.98611949     0.10000000 1 1 1
     0.00120700     0.91430296     0.10000000 1 1 1
     0.01508751     0.92878696     0.10000000 1 1 1
     0.02896801     0.94327097     0.10000000 1 1 1
     0.04284852     0.95775498     0.10000000 1 1 1
     0.05672903     0.97223899     0.10000000 1 1 1
     0.07060954     0.98672299     0.10000000 1 1 1
     0.00181050     0.87145444     0.10000000 1 1 1
     0.01569101     0.88593844     0.10000000 1 1 1
     0.02957151     0.90042245     0.10000000 1 1 1
     0.04345202     0.91490646     0.10000000 1 1 1
     0.05733253     0.92939046     0.10000000 1 1 1
     0.07121304     0.94387447     0.10000000 1 1 1
     0.08509354     0.95835848     0.10000000 1 1 1
     0.09897405     0.97284249     0.10000000 1 1 1
     0.11285456     0.98732649     0.10000000 1 1 1
     0.00241400     0.82860591     0.10000000 1 1 1
     0.01629451     0.84308992     0.10000000 1 1 1
     0.03017502     0.85757393     0.10000000 1 1 1
     0.04405552     0.87205794     0.10000000 1 1 1
     0.05793603     0.88654194     0.10000000 1 1 1
     0.07181654     0.90102595     0.10000000 1 1 1
     0.08569704     0.91550996     0.10000000 1 1 1
     0.09957755     0.92999396     0.10000000 1 1 1
     0.11345806     0.94447797     0.10000000 1 1 1
     0.12733856     0.95896198     0.10000000 1 1 1
     0.14121907     0.97344599     0.10000000 1 1 1
     0.15509958     0.98792999     0.10000000 1 1 1
     0.00301750     0.78575739     0.10000000 1 1 1
     0.01689801     0.80024140     0.10000000 1 1 1
     0.03077852     0.81472541     0.10000000 1 1 1
     0.04465902     0.82920941     0.10000000 1 1 1
     0.05853953     0.84369342     0.10000000 1 1 1
     0.07242004     0.85817743     0.10000000 1 1 1
     0.08630054     0.87266144     0.10000000 1 1 1
     0.10018105     0.88714544     0.10000000 1 1 1
     0.11406156     0.90162945     0.10000000 1 1 1
     0.12794206     0.91611346     0.10000000 1 1 1
     0.14182257     0.93059747     0.10000000 1 1 1
     0.15570308     0.94508147     0.10000000 1 1 1
     0.16958358     0.95956548     0.10000000 1 1 1
     0.18346409     0.97404949     0.10000000 1 1 1
     0.19734460     0.98853349     0.10000000 1 1 1
     0.00362100     0.74290887     0.10000000 1 1 1
     0.01750151     0.75739288     0.10000000 1 1 1
     0.03138202     0.77187689     0.10000000 1 1 1
     0.04526252     0.78636089     0.10000000 1 1 1
     0.05914303     0.80084490     0.10000000 1 1 1
     0.07302354     0.81532891     0.10000000 1 1 1
     0.08690404     0.82981291     0.10000000 1 1 1
     0.10078455     0.84429692     0.10000000 1 1 1
     0.11466506     0.85878093     0.10000000 1 1 1
     0.12854556     0.87326494     0.10000000 1 1 1
     0.14242607     0.88774894     0.10000000 1 1 1
     0.15630658     0.90223295     0.10000000 1 1 1
     0.17018709     0.91671696     0.10000000 1 1 1
     0.18406759     0.93120097     0.10000000 1 1 1
     0.19794810     0.94568497     0.10000000 1 1 1
     0.21182861     0.96016898     0.10000000 1 1 1
     0.22570911     0.97465299     0.10000000 1 1 1
     0.23958962     0.98913699     0.10000000 1 1 1
     0.00422450     0.70006035     0.10000000 1 1 1
     0.01810501     0.71454436     0.10000000 1 1 1
     0.03198552     0.72902836     0.10000000 1 1 1
     0.04586602     0.74351237     0.10000000 1 1 1
     0.05974653     0.75799638     0.10000000 1 1 1
     0.07362704     0.77248039     0.10000000 1 1 1
     0.08750754     0.78696439     0.10000000 1 1 1
     0.10138805     0.80144840     0.10000000 1 1 1
     0.11526856     0.81593241     0.10000000 1 1 1
     0.12914906     0.83041642     0.10000000 1 1 1
     0.14302957     0.84490042     0.10000000 1 1 1
     0.15691008     0.85938443     0.10000000 1 1 1
     0.17079059     0.87386844     0.10000000 1 1 1
     0.18467109     0.88835244     0.10000000 1 1 1
     0.19855160     0.90283645     0.10000000 1 1 1
     0.21243211     0.91732046     0.10000000 1 1 1
     0.22631261     0.93180447     0.10000000 1 1 1
     0.24019312     0.94628847     0.10000000 1 1 1
     0.25407363     0.96077248     0.10000000 1 1 1
     0.26795413     0.97525649     0.10000000 1 1 1
     0.28183464     0.98974049     0.10000000 1 1 1
     0.00482800     0.65721183     0.10000000 1 1 1
     0.01870851     0.67169584     0.10000000 1 1 1
     0.03258902     0.68617984     0.10000000 1 1 1
     0.04646952     0.70066385     0.10000000 1 1 1
     0.06035003     0.71514786     0.10000000 1 1 1
     0.07423054     0.72963186     0.10000000 1 1 1
     0.08811104     0.74411587     0.10000000 1 1 1
     0.10199155     0.75859988     0.10000000 1 1 1
     0.11587206     0.77308389     0.10000000 1 1 1
     0.12975256     0.78756789     0.10000000 1 1 1
     0.14363307     0.80205190     0.10000000 1 1 1
     0.15751358     0.81653591     0.10000000 1 1 1
     0.17139409     0.83101992     0.10000000 1 1 1
     0.18527459     0.84550392     0.10000000 1 1 1
     0.19915510     0.85998793     0.10000000 1 1 1
     0.21303561     0.87447194     0.10000000 1 1 1
     0.22691611     0.88895594     0.10000000 1 1 1
     0.24079662     0.90343995     0.10000000 1 1 1
     0.25467713     0.91792396     0.10000000 1 1 1
     0.26855763     0.93240797     0.10000000 1 1 1
     0.28243814     0.94689197     0.10000000 1 1 1
     0.29631865     0.96137598     0.10000000 1 1 1
     0.31019916     0.97585999     0.10000000 1 1 1
     0.32407966     0.99034400     0.10000000 1 1 1
     0.00543150     0.61436331     0.10000000 1 1 1
     0.01931201     0.62884731     0.10000000 1 1 1
     0.03319252     0.64333132     0.10000000 1 1 1
     0.04707302     0.65781533     0.10000000 1 1 1
     0.06095353     0.67229934     0.10000000 1 1 1
     0.07483404     0.68678334     0.10000000 1 1 1
     0.08871454     0.70126735     0.10000000 1 1 1
     0.10259505     0.71575136     0.10000000 1 1 1
     0.11647556     0.73023537     0.10000000 1 1 1
     0.13035607     0.74471937     0.10000000 1 1 1
     0.14423657     0.75920338     0.10000000 1 1 1
     0.15811708     0.77368739     0.10000000 1 1 1
     0.17199759     0.78817139     0.10000000 1 1 1
     0.18587809     0.80265540     0.10000000 1 1 1
     0.19975860     0.81713941     0.10000000 1 1 1
     0.21363911     0.83162342     0.10000000 1 1 1
     0.22751961     0.84610742     0.10000000 1 1 1
     0.24140012     0.86059143     0.10000000 1 1 1
     0.25528063     0.87507544     0.10000000 1 1 1
     0.26916113     0.88955944     0.10000000 1 1 1
     0.28304164     0.90404345     0.10000000 1 1 1
     0.29692215     0.91852746     0.10000000 1 1 1
     0.31080266     0.93301147     0.10000000 1 1 1
     0.32468316     0.94749547     0.10000000 1 1 1
     0.33856367     0.96197948     0.10000000 1 1 1
     0.35244418     0.97646349     0.10000000 1 1 1
     0.36632468     0.99094750     0.10000000 1 1 1
     0.00603500     0.57151479     0.10000000 1 1 1
     0.01991551     0.58599879     0.10000000 1 1 1
     0.03379602     0.60048280     0.10000000 1 1 1
     0.04767652     0.61496681     0.10000000 1 1 1
     0.06155703     0.62945081     0.10000000 1 1 1
     0.07543754     0.64393482     0.10000000 1 1 1
     0.08931804     0.65841883     0.10000000 1 1 1
     0.10319855     0.67290284     0.10000000 1 1 1
     0.11707906     0.68738684     0.10000000 1 1 1
     0.13095957     0.70187085     0.10000000 1 1 1
     0.14484007     0.71635486     0.10000000 1 1 1
     0.15872058     0.73083887     0.10000000 1 1 1
     0.17260109     0.74532287     0.10000000 1 1 1
     0.18648159     0.75980688     0.10000000 1 1 1
     0.20036210     0.77429089     0.10000000 1 1 1
     0.21424261     0.78877489     0.10000000 1 1 1
     0.22812311     0.80325890     0.10000000 1 1 1
     0.24200362     0.81774291     0.10000000 1 1 1
     0.25588413     0.83222692     0.10000000 1 1 1
     0.26976463     0.84671092     0.10000000 1 1 1
     0.28364514     0.86119493     0.10000000 1 1 1
     0.29752565     0.87567894     0.10000000 1 1 1
     0.31140616     0.89016295     0.10000000 1 1 1
     0.32528666     0.90464695     0.10000000 1 1 1
     0.33916717     0.91913096     0.10000000 1 1 1
     0.35304768     0.93361497     0.10000000 1 1 1
     0.36692818     0.94809897     0.10000000 1 1 1
     0.38080869     0.96258298     0.10000000 1 1 1
     0.39468920     0.97706699     0.10000000 1 1 1
     0.40856970     0.99155100     0.10000000 1 1 1
     0.00663850     0.52866626     0.10000000 1 1 1
     0.02051901     0.54315027     0.10000000 1 1 1
     0.03439952     0.55763428     0.10000000 1 1 1
     0.04828002     0.57211829     0.10000000 1 1 1
     0.06216053     0.58660229     0.10000000 1 1 1
     0.07604104     0.60108630     0.10000000 1 1 1
     0.08992154     0.61557031     0.10000000 1 1 1
     0.10380205     0.63005432     0.10000000 1 1 1
     0.11768256     0.64453832     0.10000000 1 1 1
     0.13156307     0.65902233     0.10000000 1 1 1
     0.14544357     0.67350634     0.10000000 1 1 1
     0.15932408     0.68799034     0.10000000 1 1 1
     0.17320459     0.70247435     0.10000000 1 1 1
     0.18708509     0.71695836     0.10000000 1 1 1
     0.20096560     0.73144237     0.10000000 1 1 1
     0.21484611     0.74592637     0.10000000 1 1 1
     0.22872661     0.76041038     0.10000000 1 1 1
     0.24260712     0.77489439     0.10000000 1 1 1
     0.25648763     0.78937839     0.10000000 1 1 1
     0.27036814     0.80386240     0.10000000 1 1 1
     0.28424864     0.81834641     0.10000000 1 1 1
     0.29812915     0.83283042     0.10000000 1 1 1
     0.31200966     0.84731442     0.10000000 1 1 1
     0.32589016     0.86179843     0.10000000 1 1 1
     0.33977067     0.87628244     0.10000000 1 1 1
     0.35365118     0.89076645     0.10000000 1 1 1
     0.36753168     0.90525045     0.10000000 1 1 1
     0.38141219     0.91973446     0.10000000 1 1 1
     0.39529270     0.93421847     0.10000000 1 1 1
     0.40917320     0.94870247     0.10000000 1 1 1
     0.42305371     0.96318648     0.10000000 1 1 1
     0.43693422     0.97767049     0.10000000 1 1 1
     0.45081473     0.99215450     0.10000000 1 1 1
     0.00724200     0.48581774     0.10000000 1 1 1
     0.02112251     0.50030175     0.10000000 1 1 1
     0.03500302     0.51478576     0.10000000 1 1 1
     0.04888352     0.52926976     0.10000000 1 1 1
     0.06276403     0.54375377     0.10000000 1 1 1
     0.07664454     0.55823778     0.10000000 1 1 1
     0.09052505     0.57272179     0.10000000 1 1 1
     0.10440555     0.58720579     0.10000000 1 1 1
     0.11828606     0.60168980     0.10000000 1 1 1
     0.13216657     0.61617381     0.10000000 1 1 1
     0.14604707     0.63065782     0.10000000 1 1 1
     0.15992758     0.64514182     0.10000000 1 1 1
     0.17380809     0.65962583     0.10000000 1 1 1
     0.18768859     0.67410984     0.10000000 1 1 1
     0.20156910     0.68859384     0.10000000 1 1 1
     0.21544961     0.70307785     0.10000000 1 1 1
     0.22933011     0.71756186     0.10000000 1 1 1
     0.24321062     0.73204587     0.10000000 1 1 1
     0.25709113     0.74652987     0.10000000 1 1 1
     0.27097164     0.76101388     0.10000000 1 1 1
     0.28485214     0.77549789     0.10000000 1 1 1
     0.29873265     0.78998189     0.10000000 1 1 1
     0.31261316     0.80446590     0.10000000 1 1 1
     0.32649366     0.81894991     0.10000000 1 1 1
     0.34037417     0.83343392     0.10000000 1 1 1
     0.35425468     0.84791792     0.10000000 1 1 1
     0.36813518     0.86240193     0.10000000 1 1 1
     0.38201569     0.87688594     0.10000000 1 1 1
     0.39589620     0.89136995     0.10000000 1 1 1
     0.40977670     0.90585395     0.10000000 1 1 1
     0.42365721     0.92033796     0.10000000 1 1 1
     0.43753772     0.93482197     0.10000000 1 1 1
     0.45141823     0.94930597     0.10000000 1 1 1
     0.46529873     0.96378998     0.10000000 1 1 1
     0.47917924     0.97827399     0.10000000 1 1 1
     0.49305975     0.99275800     0.10000000 1 1 1
     0.00784550     0.44296922     0.10000000 1 1 1
     0.02172601     0.45745323     0.10000000 1 1 1
     0.03560652     0.47193724     0.10000000 1 1 1
     0.04948702     0.48642124     0.10000000 1 1 1
     0.06336753     0.50090525     0.10000000 1 1 1
     0.07724804     0.51538926     0.10000000 1 1 1
     0.09112855     0.52987326     0.10000000 1 1 1
     0.10500905     0.54435727     0.10000000 1 1 1
     0.11888956     0.55884128     0.10000000 1 1 1
     0.13277007     0.57332529     0.10000000 1 1 1
     0.14665057     0.58780929     0.10000000 1 1 1
     0.16053108     0.60229330     0.10000000 1 1 1
     0.17441159     0.61677731     0.10000000 1 1 1
     0.18829209     0.63126132     0.10000000 1 1 1
     0.20217260     0.64574532     0.10000000 1 1 1
     0.21605311     0.66022933     0.10000000 1 1 1
     0.22993361     0.67471334     0.10000000 1 1 1
     0.24381412     0.68919734     0.10000000 1 1 1
     0.25769463     0.70368135     0.10000000 1 1 1
     0.27157514     0.71816536     0.10000000 1 1 1
     0.28545564     0.73264937     0.10000000 1 1 1
     0.29933615     0.74713337     0.10000000 1 1 1
     0.31321666     0.76161738     0.10000000 1 1 1
     0.32709716     0.77610139     0.10000000 1 1 1
     0.34097767     0.79058540     0.10000000 1 1 1
     0.35485818     0.80506940     0.10000000 1 1 1
     0.36873868     0.81955341     0.10000000 1 1 1
     0.38261919     0.83403742     0.10000000 1 1 1
     0.39649970     0.84852142     0.10000000 1 1 1
     0.41038021     0.86300543     0.10000000 1 1 1
     0.42426071     0.87748944     0.10000000 1 1 1
     0.43814122     0.89197345     0.10000000 1 1 1
     0.45202173     0.90645745     0.10000000 1 1 1
     0.46590223     0.92094146     0.10000000 1 1 1
     0.47978274     0.93542547     0.10000000 1 1 1
     0.49366325     0.94990947     0.10000000 1 1 1
     0.50754375     0.96439348     0.10000000 1 1 1
     0.52142426     0.97887749     0.10000000 1 1 1
     0.53530477     0.99336150     0.10000000 1 1 1
     0.00844900     0.40012070     0.10000000 1 1 1
     0.02232951     0.41460471     0.10000000 1 1 1
     0.03621002     0.42908871     0.10000000 1 1 1
     0.05009053     0.44357272     0.10000000 1 1 1
     0.06397103     0.45805673     0.10000000 1 1 1
     0.07785154     0.47254074     0.10000000 1 1 1
     0.09173205     0.48702474     0.10000000 1 1 1
     0.10561255     0.50150875     0.10000000 1 1 1
     0.11949306     0.51599276     0.10000000 1 1 1
     0.13337357     0.53047677     0.10000000 1 1 1
     0.14725407     0.54496077     0.10000000 1 1 1
     0.16113458     0.55944478     0.10000000 1 1 1
     0.17501509     0.57392879     0.10000000 1 1 1
     0.18889559     0.58841279     0.10000000 1 1 1
     0.20277610     0.60289680     0.10000000 1 1 1
     0.21665661     0.61738081     0.10000000 1 1 1
     0.23053712     0.63186482     0.10000000 1 1 1
     0.24441762     0.64634882     0.10000000 1 1 1
     0.25829813     0.66083283     0.10000000 1 1 1
     0.27217864     0.67531684     0.10000000 1 1 1
     0.28605914     0.68980084     0.10000000 1 1 1
     0.29993965     0.70428485     0.10000000 1 1 1
     0.31382016     0.71876886     0.10000000 1 1 1
     0.32770066     0.73325287     0.10000000 1 1 1
     0.34158117     0.74773687     0.10000000 1 1 1
     0.35546168     0.76222088     0.10000000 1 1 1
     0.36934218     0.77670489     0.10000000 1 1 1
     0.38322269     0.79118890     0.10000000 1 1 1
     0.39710320     0.80567290     0.10000000 1 1 1
     0.41098371     0.82015691     0.10000000 1 1 1
     0.42486421     0.83464092     0.10000000 1 1 1
     0.43874472     0.84912492     0.10000000 1 1 1
     0.45262523     0.86360893     0.10000000 1 1 1
     0.46650573     0.87809294     0.10000000 1 1 1
     0.48038624     0.89257695     0.10000000 1 1 1
     0.49426675     0.90706095     0.10000000 1 1 1
     0.50814725     0.92154496     0.10000000 1 1 1
     0.52202776     0.93602897     0.10000000 1 1 1
     0.53590827     0.95051298     0.10000000 1 1 1
     0.54978877     0.96499698     0.10000000 1 1 1
     0.56366928     0.97948099     0.10000000 1 1 1
     0.57754979     0.99396500     0.10000000 1 1 1
     0.00905250     0.35727218     0.10000000 1 1 1
     0.02293301     0.37175619     0.10000000 1 1 1
     0.03681352     0.38624019     0.10000000 1 1 1
     0.05069403     0.40072420     0.10000000 1 1 1
     0.06457453     0.41520821     0.10000000 1 1 1
     0.07845504     0.42969221     0.10000000 1 1 1
     0.09233555     0.44417622     0.10000000 1 1 1
     0.10621605     0.45866023     0.10000000 1 1 1
     0.12009656     0.47314424     0.10000000 1 1 1
     0.13397707     0.48762824     0.10000000 1 1 1
     0.14785757     0.50211225     0.10000000 1 1 1
     0.16173808     0.51659626     0.10000000 1 1 1
     0.17561859     0.53108027     0.10000000 1 1 1
     0.18949909     0.54556427     0.10000000 1 1 1
     0.20337960     0.56004828     0.10000000 1 1 1
     0.21726011     0.57453229     0.10000000 1 1 1
     0.23114062     0.58901629     0.10000000 1 1 1
     0.24502112     0.60350030     0.10000000 1 1 1
     0.25890163     0.61798431     0.10000000 1 1 1
     0.27278214     0.63246832     0.10000000 1 1 1
     0.28666264     0.64695232     0.10000000 1 1 1
     0.30054315     0.66143633     0.10000000 1 1 1
     0.31442366     0.67592034     0.10000000 1 1 1
     0.32830416     0.69040435     0.10000000 1 1 1
     0.34218467     0.70488835     0.10000000 1 1 1
     0.35606518     0.71937236     0.10000000 1 1 1
     0.36994568     0.73385637     0.10000000 1 1 1
     0.38382619     0.74834037     0.10000000 1 1 1
     0.39770670     0.76282438     0.10000000 1 1 1
     0.41158721     0.77730839     0.10000000 1 1 1
     0.42546771     0.79179240     0.10000000 1 1 1
     0.43934822     0.80627640     0.10000000 1 1 1
     0.45322873     0.82076041     0.10000000 1 1 1
     0.46710923     0.83524442     0.10000000 1 1 1
     0.48098974     0.84972842     0.10000000 1 1 1
     0.49487025     0.86421243     0.10000000 1 1 1
     0.50875075     0.87869644     0.10000000 1 1 1
     0.52263126     0.89318045     0.10000000 1 1 1
     0.53651177     0.90766445     0.10000000 1 1 1
     0.55039228     0.92214846     0.10000000 1 1 1
     0.56427278     0.93663247     0.10000000 1 1 1
     0.57815329     0.95111648     0.10000000 1 1 1
     0.59203380     0.96560048     0.10000000 1 1 1
     0.60591430     0.98008449     0.10000000 1 1 1
     0.61979481     0.99456850     0.10000000 1 1 1
     0.00965600     0.31442366     0.10000000 1 1 1
     0.02353651     0.32890766     0.10000000 1 1 1
     0.03741702     0.34339167     0.10000000 1 1 1
     0.05129753     0.35787568     0.10000000 1 1 1
     0.06517803     0.37235969     0.10000000 1 1 1
     0.07905854     0.38684369     0.10000000 1 1 1
     0.09293905     0.40132770     0.10000000 1 1 1
     0.10681955     0.41581171     0.10000000 1 1 1
     0.12070006     0.43029572     0.10000000 1 1 1
     0.13458057     0.44477972     0.10000000 1 1 1
     0.14846107     0.45926373     0.10000000 1 1 1
     0.16234158     0.47374774     0.10000000 1 1 1
     0.17622209     0.48823174     0.10000000 1 1 1
     0.19010260     0.50271575     0.10000000 1 1 1
     0.20398310     0.51719976     0.10000000 1 1 1
     0.21786361     0.53168377     0.10000000 1 1 1
     0.23174412     0.54616777     0.10000000 1 1 1
     0.24562462     0.56065178     0.10000000 1 1 1
     0.25950513     0.57513579     0.10000000 1 1 1
     0.27338564     0.58961979     0.10000000 1 1 1
     0.28726614     0.60410380     0.10000000 1 1 1
     0.30114665     0.61858781     0.10000000 1 1 1
     0.31502716     0.63307182     0.10000000 1 1 1
     0.32890766     0.64755582     0.10000000 1 1 1
     0.34278817     0.66203983     0.10000000 1 1 1
     0.35666868     0.67652384     0.10000000 1 1 1
     0.37054919     0.69100785     0.10000000 1 1 1
     0.38442969     0.70549185     0.10000000 1 1 1
     0.39831020     0.71997586     0.10000000 1 1 1
     0.41219071     0.73445987     0.10000000 1 1 1
     0.42607121     0.74894387     0.10000000 1 1 1
     0.43995172     0.76342788     0.10000000 1 1 1
     0.45383223     0.77791189     0.10000000 1 1 1
     0.46771273     0.79239590     0.10000000 1 1 1
     0.48159324     0.80687990     0.10000000 1 1 1
     0.49547375     0.82136391     0.10000000 1 1 1
     0.50935425     0.83584792     0.10000000 1 1 1
     0.52323476     0.85033193     0.10000000 1 1 1
     0.53711527     0.86481593     0.10000000 1 1 1
     0.55099578     0.87929994     0.10000000 1 1 1
     0.56487628     0.89378395     0.10000000 1 1 1
     0.57875679     0.90826795     0.10000000 1 1 1
     0.59263730     0.92275196     0.10000000 1 1 1
     0.60651780     0.93723597     0.10000000 1 1 1
     0.62039831     0.95171998     0.10000000 1 1 1
     0.63427882     0.96620398     0.10000000 1 1 1
     0.64815932     0.98068799     0.10000000 1 1 1
     0.66203983     0.99517200     0.10000000 1 1 1
     0.01025951     0.27157514     0.10000000 1 1 1
     0.02414001     0.28605914     0.10000000 1 1 1
     0.03802052     0.30054315     0.10000000 1 1 1
     0.05190103     0.31502716     0.10000000 1 1 1
     0.06578153     0.32951116     0.10000000 1 1 1
     0.07966204     0.34399517     0.10000000 1 1 1
     0.09354255     0.35847918     0.10000000 1 1 1
     0.10742305     0.37296319     0.10000000 1 1 1
     0.12130356     0.38744719     0.10000000 1 1 1
     0.13518407     0.40193120     0.10000000 1 1 1
     0.14906457     0.41641521     0.10000000 1 1 1
     0.16294508     0.43089922     0.10000000 1 1 1
     0.17682559     0.44538322     0.10000000 1 1 1
     0.19070610     0.45986723     0.10000000 1 1 1
     0.20458660     0.47435124     0.10000000 1 1 1
     0.21846711     0.48883524     0.10000000 1 1 1
     0.23234762     0.50331925     0.10000000 1 1 1
     0.24622812     0.51780326     0.10000000 1 1 1
     0.26010863     0.53228727     0.10000000 1 1 1
     0.27398914     0.54677127     0.10000000 1 1 1
     0.28786964     0.56125528     0.10000000 1 1 1
     0.30175015     0.57573929     0.10000000 1 1 1
     0.31563066     0.59022330     0.10000000 1 1 1
     0.32951116     0.60470730     0.10000000 1 1 1
     0.34339167     0.61919131     0.10000000 1 1 1
     0.35727218     0.63367532     0.10000000 1 1 1
     0.37115269     0.64815932     0.10000000 1 1 1
     0.38503319     0.66264333     0.10000000 1 1 1
     0.39891370     0.67712734     0.10000000 1 1 1
     0.41279421     0.69161135     0.10000000 1 1 1
     0.42667471     0.70609535     0.10000000 1 1 1
     0.44055522     0.72057936     0.10000000 1 1 1
     0.45443573     0.73506337     0.10000000 1 1 1
     0.46831623     0.74954737     0.10000000 1 1 1
     0.48219674     0.76403138     0.10000000 1 1 1
     0.49607725     0.77851539     0.10000000 1 1 1
     0.50995775     0.79299940     0.10000000 1 1 1
     0.52383826     0.80748340     0.10000000 1 1 1
     0.53771877     0.82196741     0.10000000 1 1 1
     0.55159928     0.83645142     0.10000000 1 1 1
     0.56547978     0.85093543     0.10000000 1 1 1
     0.57936029     0.86541943     0.10000000 1 1 1
     0.59324080     0.87990344     0.10000000 1 1 1
     0.60712130     0.89438745     0.10000000 1 1 1
     0.62100181     0.90887145     0.10000000 1 1 1
     0.63488232     0.92335546     0.10000000 1 1 1
     0.64876282     0.93783947     0.10000000 1 1 1
     0.66264333     0.95232348     0.10000000 1 1 1
     0.67652384     0.96680748     0.10000000 1 1 1
     0.69040435     0.98129149     0.10000000 1 1 1
     0.70428485     0.99577550     0.10000000 1 1 1
     0.01086301     0.22872661     0.10000000 1 1 1
     0.02474351     0.24321062     0.10000000 1 1 1
     0.03862402     0.25769463     0.10000000 1 1 1
     0.05250453     0.27217864     0.10000000 1 1 1
     0.06638503     0.28666264     0.10000000 1 1 1
     0.08026554     0.30114665     0.10000000 1 1 1
     0.09414605     0.31563066     0.10000000 1 1 1
     0.10802655     0.33011467     0.10000000 1 1 1
     0.12190706     0.34459867     0.10000000 1 1 1
     0.13578757     0.35908268     0.10000000 1 1 1
     0.14966807     0.37356669     0.10000000 1 1 1
     0.16354858     0.38805069     0.10000000 1 1 1
     0.17742909     0.40253470     0.10000000 1 1 1
     0.19130960     0.41701871     0.10000000 1 1 1
     0.20519010     0.43150272     0.10000000 1 1 1
     0.21907061     0.44598672     0.10000000 1 1 1
     0.23295112     0.46047073     0.10000000 1 1 1
     0.24683162     0.47495474     0.10000000 1 1 1
     0.26071213     0.48943874     0.10000000 1 1 1
     0.27459264     0.50392275     0.10000000 1 1 1
     0.28847314     0.51840676     0.10000000 1 1 1
     0.30235365     0.53289077     0.10000000 1 1 1
     0.31623416     0.54737477     0.10000000 1 1 1
     0.33011467     0.56185878     0.10000000 1 1 1
     0.34399517     0.57634279     0.10000000 1 1 1
     0.35787568     0.59082680     0.10000000 1 1 1
     0.37175619     0.60531080     0.10000000 1 1 1
     0.38563669     0.61979481     0.10000000 1 1 1
     0.39951720     0.63427882     0.10000000 1 1 1
     0.41339771     0.64876282     0.10000000 1 1 1
     0.42727821     0.66324683     0.10000000 1 1 1
     0.44115872     0.67773084     0.10000000 1 1 1
     0.45503923     0.69221485     0.10000000 1 1 1
     0.46891973     0.70669885     0.10000000 1 1 1
     0.48280024     0.72118286     0.10000000 1 1 1
     0.49668075     0.73566687     0.10000000 1 1 1
     0.51056126     0.75015088     0.10000000 1 1 1
     0.52444176     0.76463488     0.10000000 1 1 1
     0.53832227     0.77911889     0.10000000 1 1 1
     0.55220278     0.79360290     0.10000000 1 1 1
     0.56608328     0.80808690     0.10000000 1 1 1
     0.57996379     0.82257091     0.10000000 1 1 1
     0.59384430     0.83705492     0.10000000 1 1 1
     0.60772480     0.85153893     0.10000000 1 1 1
     0.62160531     0.86602293     0.10000000 1 1 1
     0.63548582     0.88050694     0.10000000 1 1 1
     0.64936632     0.89499095     0.10000000 1 1 1
     0.66324683     0.90947495     0.10000000 1 1 1
     0.67712734     0.92395896     0.10000000 1 1 1
     0.69100785     0.93844297     0.10000000 1 1 1
     0.70488835     0.95292698     0.10000000 1 1 1
     0.71876886     0.96741098     0.10000000 1 1 1
     0.73264937     0.98189499     0.10000000 1 1 1
     0.74652987     0.99637900     0.10000000 1 1 1
     0.01146651     0.18587809     0.10000000 1 1 1
     0.02534701     0.20036210     0.10000000 1 1 1
     0.03922752     0.21484611     0.10000000 1 1 1
     0.05310803     0.22933011     0.10000000 1 1 1
     0.06698853     0.24381412     0.10000000 1 1 1
     0.08086904     0.25829813     0.10000000 1 1 1
     0.09474955     0.27278214     0.10000000 1 1 1
     0.10863005     0.28726614     0.10000000 1 1 1
     0.12251056     0.30175015     0.10000000 1 1 1
     0.13639107     0.31623416     0.10000000 1 1 1
     0.15027158     0.33071817     0.10000000 1 1 1
     0.16415208     0.34520217     0.10000000 1 1 1
     0.17803259     0.35968618     0.10000000 1 1 1
     0.19191310     0.37417019     0.10000000 1 1 1
     0.20579360     0.38865419     0.10000000 1 1 1
     0.21967411     0.40313820     0.10000000 1 1 1
     0.23355462     0.41762221     0.10000000 1 1 1
     0.24743512     0.43210622     0.10000000 1 1 1
     0.26131563     0.44659022     0.10000000 1 1 1
     0.27519614     0.46107423     0.10000000 1 1 1
     0.28907664     0.47555824     0.10000000 1 1 1
     0.30295715     0.49004225     0.10000000 1 1 1
     0.31683766     0.50452625     0.10000000 1 1 1
     0.33071817     0.51901026     0.10000000 1 1 1
     0.34459867     0.53349427     0.10000000 1 1 1
     0.35847918     0.54797827     0.10000000 1 1 1
     0.37235969     0.56246228     0.10000000 1 1 1
     0.38624019     0.57694629     0.10000000 1 1 1
     0.40012070     0.59143030     0.10000000 1 1 1
     0.41400121     0.60591430     0.10000000 1 1 1
     0.42788171     0.62039831     0.10000000 1 1 1
     0.44176222     0.63488232     0.10000000 1 1 1
     0.45564273     0.64936632     0.10000000 1 1 1
     0.46952323     0.66385033     0.10000000 1 1 1
     0.48340374     0.67833434     0.10000000 1 1 1
     0.49728425     0.69281835     0.10000000 1 1 1
     0.51116476     0.70730235     0.10000000 1 1 1
     0.52504526     0.72178636     0.10000000 1 1 1
     0.53892577     0.73627037     0.10000000 1 1 1
     0.55280628     0.75075438     0.10000000 1 1 1
     0.56668678     0.76523838     0.10000000 1 1 1
     0.58056729     0.77972239     0.10000000 1 1 1
     0.59444780     0.79420640     0.10000000 1 1 1
     0.60832830     0.80869040     0.10000000 1 1 1
     0.62220881     0.82317441     0.10000000 1 1 1
     0.63608932     0.83765842     0.10000000 1 1 1
     0.64996982     0.85214243     0.10000000 1 1 1
     0.66385033     0.86662643     0.10000000 1 1 1
     0.67773084     0.88111044     0.10000000 1 1 1
     0.69161135     0.89559445     0.10000000 1 1 1
     0.70549185     0.91007846     0.10000000 1 1 1
     0.71937236     0.92456246     0.10000000 1 1 1
     0.73325287     0.93904647     0.10000000 1 1 1
     0.74713337     0.95353048     0.10000000 1 1 1
     0.76101388     0.96801448     0.10000000 1 1 1
     0.77489439     0.98249849     0.10000000 1 1 1
     0.78877489     0.99698250     0.10000000 1 1 1