ATOMIC_SPECIES
C 6.000 ./C_ONCV_PBE-1.0.upf

NUMERICAL_ORBITAL
./C_gga_8au_100Ry_2s2p1d.orb

LATTICE_CONSTANT
1.889716

LATTICE_VECTORS
       54.1090014022       29.8198535028       0.0000000000
       -14.4798893278       26.2741851454       0.0000000000
       27.0545007011       14.9099267514       53.5047266300

ATOMIC_POSITIONS
Direct

C
0.0
2524
     0.001584790     0.100000000     0.930269410 1 1 1
     0.023771790     0.100000000     0.954041200 1 1 1
     0.045958800     0.100000000     0.977813000 1 1 1
     0.003169570     0.100000000     0.860538830 1 1 1
     0.025356580     0.100000000     0.884310620 1 1 1
     0.047543580     0.100000000     0.908082410 1 1 1
     0.069730590     0.100000000     0.931854200 1 1 1
     0.091917590     0.100000000     0.955625990 1 1 1
     0.114104600     0.100000000     0.979397780 1 1 1
     0.004754360     0.100000000     0.790808240 1 1 1
     0.026941360     0.100000000     0.814580030 1 1 1
     0.049128370     0.100000000     0.838351820 1 1 1
     0.071315370     0.100000000     0.862123610 1 1 1
     0.093502380     0.100000000     0.885895400 1 1 1
     0.115689380     0.100000000     0.909667190 1 1 1
     0.137876390     0.100000000     0.933438990 1 1 1
     0.160063390     0.100000000     0.957210780 1 1 1
     0.182250400     0.100000000     0.980982570 1 1 1
     0.006339140     0.100000000     0.721077650 1 1 1
     0.028526150     0.100000000     0.744849450 1 1 1
     0.050713150     0.100000000     0.768621240 1 1 1
     0.072900160     0.100000000     0.792393030 1 1 1
     0.095087160     0.100000000     0.816164820 1 1 1
     0.117274170     0.100000000     0.839936610 1 1 1
     0.139461170     0.100000000     0.863708400 1 1 1
     0.161648180     0.100000000     0.887480190 1 1 1
     0.183835180     0.100000000     0.911251980 1 1 1
     0.206022190     0.100000000     0.935023770 1 1 1
     0.228209190     0.100000000     0.958795560 1 1 1
     0.250396200     0.100000000     0.982567350 1 1 1
     0.007923930     0.100000000     0.651347070 1 1 1
     0.030110940     0.100000000     0.675118860 1 1 1
     0.052297940     0.100000000     0.698890650 1 1 1
     0.074484940     0.100000000     0.722662440 1 1 1
     0.096671950     0.100000000     0.746434230 1 1 1
     0.118858950     0.100000000     0.770206020 1 1 1
     0.141045960     0.100000000     0.793977810 1 1 1
     0.163232960     0.100000000     0.817749600 1 1 1
     0.185419970     0.100000000     0.841521390 1 1 1
     0.207606970     0.100000000     0.865293190 1 1 1
     0.229793980     0.100000000     0.889064980 1 1 1
     0.251980980     0.100000000     0.912836770 1 1 1
     0.274167990     0.100000000     0.936608560 1 1 1
     0.296354990     0.100000000     0.960380350 1 1 1
     0.318542000     0.100000000     0.984152140 1 1 1
     0.009508720     0.100000000     0.581616480 1 1 1
     0.031695720     0.100000000     0.605388270 1 1 1
     0.053882730     0.100000000     0.629160060 1 1 1
     0.076069730     0.100000000     0.652931850 1 1 1
     0.098256740     0.100000000     0.676703650 1 1 1
     0.120443740     0.100000000     0.700475440 1 1 1
     0.142630740     0.100000000     0.724247230 1 1 1
     0.164817750     0.100000000     0.748019020 1 1 1
     0.187004750     0.100000000     0.771790810 1 1 1
     0.209191760     0.100000000     0.795562600 1 1 1
     0.231378760     0.100000000     0.819334390 1 1 1
     0.253565770     0.100000000     0.843106180 1 1 1
     0.275752770     0.100000000     0.866877970 1 1 1
     0.297939780     0.100000000     0.890649760 1 1 1
     0.320126780     0.100000000     0.914421550 1 1 1
     0.342313790     0.100000000     0.938193340 1 1 1
     0.364500790     0.100000000     0.961965130 1 1 1
     0.386687800     0.100000000     0.985736930 1 1 1
     0.011093500     0.100000000     0.511885900 1 1 1
     0.033280510     0.100000000     0.535657690 1 1 1
     0.055467510     0.100000000     0.559429480 1 1 1
     0.077654520     0.100000000     0.583201270 1 1 1
     0.099841520     0.100000000     0.606973060 1 1 1
     0.122028530     0.100000000     0.630744850 1 1 1
     0.144215530     0.100000000     0.654516640 1 1 1
     0.166402540     0.100000000     0.678288430 1 1 1
     0.188589540     0.100000000     0.702060220 1 1 1
     0.210776550     0.100000000     0.725832010 1 1 1
     0.232963550     0.100000000     0.749603800 1 1 1
     0.255150550     0.100000000     0.773375590 1 1 1
     0.277337560     0.100000000     0.797147390 1 1 1
     0.299524560     0.100000000     0.820919180 1 1 1
     0.321711570     0.100000000     0.844690970 1 1 1
     0.343898570     0.100000000     0.868462760 1 1 1
     0.366085580     0.100000000     0.892234550 1 1 1
     0.388272580     0.100000000     0.916006340 1 1 1
     0.410459590     0.100000000     0.939778130 1 1 1
     0.432646590     0.100000000     0.963549920 1 1 1
     0.454833600     0.100000000     0.987321710 1 1 1
     0.012678290     0.100000000     0.442155310 1 1 1
     0.034865290     0.100000000     0.465927100 1 1 1
     0.057052300     0.100000000     0.489698890 1 1 1
     0.079239300     0.100000000     0.513470680 1 1 1
     0.101426310     0.100000000     0.537242470 1 1 1
     0.123613310     0.100000000     0.561014260 1 1 1
     0.145800320     0.100000000     0.584786050 1 1 1
     0.167987320     0.100000000     0.608557840 1 1 1
     0.190174330     0.100000000     0.632329640 1 1 1
     0.212361330     0.100000000     0.656101430 1 1 1
     0.234548340     0.100000000     0.679873220 1 1 1
     0.256735340     0.100000000     0.703645010 1 1 1
     0.278922350     0.100000000     0.727416800 1 1 1
     0.301109350     0.100000000     0.751188590 1 1 1
     0.323296350     0.100000000     0.774960380 1 1 1
     0.345483360     0.100000000     0.798732170 1 1 1
     0.367670360     0.100000000     0.822503960 1 1 1
     0.389857370     0.100000000     0.846275750 1 1 1
     0.412044370     0.100000000     0.870047540 1 1 1
     0.434231380     0.100000000     0.893819330 1 1 1
     0.456418380     0.100000000     0.917591130 1 1 1
     0.478605390     0.100000000     0.941362920 1 1 1
     0.500792390     0.100000000     0.965134710 1 1 1
     0.522979400     0.100000000     0.988906500 1 1 1
     0.014263070     0.100000000     0.372424720 1 1 1
     0.036450080     0.100000000     0.396196510 1 1 1
     0.058637080     0.100000000     0.419968300 1 1 1
     0.080824090     0.100000000     0.443740100 1 1 1
     0.103011090     0.100000000     0.467511890 1 1 1
     0.125198100     0.100000000     0.491283680 1 1 1
     0.147385100     0.100000000     0.515055470 1 1 1
     0.169572110     0.100000000     0.538827260 1 1 1
     0.191759110     0.100000000     0.562599050 1 1 1
     0.213946120     0.100000000     0.586370840 1 1 1
     0.236133120     0.100000000     0.610142630 1 1 1
     0.258320130     0.100000000     0.633914420 1 1 1
     0.280507130     0.100000000     0.657686210 1 1 1
     0.302694140     0.100000000     0.681458000 1 1 1
     0.324881140     0.100000000     0.705229790 1 1 1
     0.347068150     0.100000000     0.729001580 1 1 1
     0.369255150     0.100000000     0.752773380 1 1 1
     0.391442160     0.100000000     0.776545170 1 1 1
     0.413629160     0.100000000     0.800316960 1 1 1
     0.435816160     0.100000000     0.824088750 1 1 1
     0.458003170     0.100000000     0.847860540 1 1 1
     0.480190170     0.100000000     0.871632330 1 1 1
     0.502377180     0.100000000     0.895404120 1 1 1
     0.524564180     0.100000000     0.919175910 1 1 1
     0.546751190     0.100000000     0.942947700 1 1 1
     0.568938190     0.100000000     0.966719490 1 1 1
     0.591125200     0.100000000     0.990491280 1 1 1
     0.015847860     0.100000000     0.302694140 1 1 1
     0.038034870     0.100000000     0.326465930 1 1 1
     0.060221870     0.100000000     0.350237720 1 1 1
     0.082408870     0.100000000     0.374009510 1 1 1
     0.104595880     0.100000000     0.397781300 1 1 1
     0.126782880     0.100000000     0.421553090 1 1 1
     0.148969890     0.100000000     0.445324880 1 1 1
     0.171156890     0.100000000     0.469096670 1 1 1
     0.193343900     0.100000000     0.492868460 1 1 1
     0.215530900     0.100000000     0.516640250 1 1 1
     0.237717910     0.100000000     0.540412040 1 1 1
     0.259904910     0.100000000     0.564183840 1 1 1
     0.282091920     0.100000000     0.587955630 1 1 1
     0.304278920     0.100000000     0.611727420 1 1 1
     0.326465930     0.100000000     0.635499210 1 1 1
     0.348652930     0.100000000     0.659271000 1 1 1
     0.370839940     0.100000000     0.683042790 1 1 1
     0.393026940     0.100000000     0.706814580 1 1 1
     0.415213950     0.100000000     0.730586370 1 1 1
     0.437400950     0.100000000     0.754358160 1 1 1
     0.459587960     0.100000000     0.778129950 1 1 1
     0.481774960     0.100000000     0.801901740 1 1 1
     0.503961970     0.100000000     0.825673530 1 1 1
     0.526148970     0.100000000     0.849445320 1 1 1
     0.548335970     0.100000000     0.873217120 1 1 1
     0.570522980     0.100000000     0.896988910 1 1 1
     0.592709980     0.100000000     0.920760700 1 1 1
     0.614896990     0.100000000     0.944532490 1 1 1
     0.637083990     0.100000000     0.968304280 1 1 1
     0.659271000     0.100000000     0.992076070 1 1 1
     0.017432650     0.100000000     0.232963550 1 1 1
     0.039619650     0.100000000     0.256735340 1 1 1
     0.061806660     0.100000000     0.280507130 1 1 1
     0.083993660     0.100000000     0.304278920 1 1 1
     0.106180670     0.100000000     0.328050710 1 1 1
     0.128367670     0.100000000     0.351822500 1 1 1
     0.150554680     0.100000000     0.375594290 1 1 1
     0.172741680     0.100000000     0.399366090 1 1 1
     0.194928680     0.100000000     0.423137880 1 1 1
     0.217115690     0.100000000     0.446909670 1 1 1
     0.239302690     0.100000000     0.470681460 1 1 1
     0.261489700     0.100000000     0.494453250 1 1 1
     0.283676700     0.100000000     0.518225040 1 1 1
     0.305863710     0.100000000     0.541996830 1 1 1
     0.328050710     0.100000000     0.565768620 1 1 1
     0.350237720     0.100000000     0.589540410 1 1 1
     0.372424720     0.100000000     0.613312200 1 1 1
     0.394611730     0.100000000     0.637083990 1 1 1
     0.416798730     0.100000000     0.660855780 1 1 1
     0.438985740     0.100000000     0.684627580 1 1 1
     0.461172740     0.100000000     0.708399370 1 1 1
     0.483359750     0.100000000     0.732171160 1 1 1
     0.505546750     0.100000000     0.755942950 1 1 1
     0.527733760     0.100000000     0.779714740 1 1 1
     0.549920760     0.100000000     0.803486530 1 1 1
     0.572107770     0.100000000     0.827258320 1 1 1
     0.594294770     0.100000000     0.851030110 1 1 1
     0.616481770     0.100000000     0.874801900 1 1 1
     0.638668780     0.100000000     0.898573690 1 1 1
     0.660855780     0.100000000     0.922345480 1 1 1
     0.683042790     0.100000000     0.946117270 1 1 1
     0.705229790     0.100000000     0.969889060 1 1 1
     0.727416800     0.100000000     0.993660860 1 1 1
     0.019017430     0.100000000     0.163232960 1 1 1
     0.041204440     0.100000000     0.187004750 1 1 1
     0.063391440     0.100000000     0.210776550 1 1 1
     0.085578450     0.100000000     0.234548340 1 1 1
     0.107765450     0.100000000     0.258320130 1 1 1
     0.129952460     0.100000000     0.282091920 1 1 1
     0.152139460     0.100000000     0.305863710 1 1 1
     0.174326470     0.100000000     0.329635500 1 1 1
     0.196513470     0.100000000     0.353407290 1 1 1
     0.218700480     0.100000000     0.377179080 1 1 1
     0.240887480     0.100000000     0.400950870 1 1 1
     0.263074480     0.100000000     0.424722660 1 1 1
     0.285261490     0.100000000     0.448494450 1 1 1
     0.307448490     0.100000000     0.472266240 1 1 1
     0.329635500     0.100000000     0.496038030 1 1 1
     0.351822500     0.100000000     0.519809830 1 1 1
     0.374009510     0.100000000     0.543581620 1 1 1
     0.396196510     0.100000000     0.567353410 1 1 1
     0.418383520     0.100000000     0.591125200 1 1 1
     0.440570520     0.100000000     0.614896990 1 1 1
     0.462757530     0.100000000     0.638668780 1 1 1
     0.484944530     0.100000000     0.662440570 1 1 1
     0.507131540     0.100000000     0.686212360 1 1 1
     0.529318540     0.100000000     0.709984150 1 1 1
     0.551505550     0.100000000     0.733755940 1 1 1
     0.573692550     0.100000000     0.757527730 1 1 1
     0.595879560     0.100000000     0.781299520 1 1 1
     0.618066560     0.100000000     0.805071320 1 1 1
     0.640253570     0.100000000     0.828843110 1 1 1
     0.662440570     0.100000000     0.852614900 1 1 1
     0.684627580     0.100000000     0.876386690 1 1 1
     0.706814580     0.100000000     0.900158480 1 1 1
     0.729001580     0.100000000     0.923930270 1 1 1
     0.751188590     0.100000000     0.947702060 1 1 1
     0.773375590     0.100000000     0.971473850 1 1 1
     0.795562600     0.100000000     0.995245640 1 1 1
     0.020602220     0.100000000     0.093502380 1 1 1
     0.042789220     0.100000000     0.117274170 1 1 1
     0.064976230     0.100000000     0.141045960 1 1 1
     0.087163230     0.100000000     0.164817750 1 1 1
     0.109350240     0.100000000     0.188589540 1 1 1
     0.131537240     0.100000000     0.212361330 1 1 1
     0.153724250     0.100000000     0.236133120 1 1 1
     0.175911250     0.100000000     0.259904910 1 1 1
     0.198098260     0.100000000     0.283676700 1 1 1
     0.220285260     0.100000000     0.307448490 1 1 1
     0.242472270     0.100000000     0.331220290 1 1 1
     0.264659270     0.100000000     0.354992080 1 1 1
     0.286846280     0.100000000     0.378763870 1 1 1
     0.309033280     0.100000000     0.402535660 1 1 1
     0.331220290     0.100000000     0.426307450 1 1 1
     0.353407290     0.100000000     0.450079240 1 1 1
     0.375594290     0.100000000     0.473851030 1 1 1
     0.397781300     0.100000000     0.497622820 1 1 1
     0.419968300     0.100000000     0.521394610 1 1 1
     0.442155310     0.100000000     0.545166400 1 1 1
     0.464342310     0.100000000     0.568938190 1 1 1
     0.486529320     0.100000000     0.592709980 1 1 1
     0.508716320     0.100000000     0.616481770 1 1 1
     0.530903330     0.100000000     0.640253570 1 1 1
     0.553090330     0.100000000     0.664025360 1 1 1
     0.575277340     0.100000000     0.687797150 1 1 1
     0.597464340     0.100000000     0.711568940 1 1 1
     0.619651350     0.100000000     0.735340730 1 1 1
     0.641838350     0.100000000     0.759112520 1 1 1
     0.664025360     0.100000000     0.782884310 1 1 1
     0.686212360     0.100000000     0.806656100 1 1 1
     0.708399370     0.100000000     0.830427890 1 1 1
     0.730586370     0.100000000     0.854199680 1 1 1
     0.752773380     0.100000000     0.877971470 1 1 1
     0.774960380     0.100000000     0.901743260 1 1 1
     0.797147390     0.100000000     0.925515060 1 1 1
     0.819334390     0.100000000     0.949286850 1 1 1
     0.841521390     0.100000000     0.973058640 1 1 1
     0.863708400     0.100000000     0.996830430 1 1 1
     0.000000000     0.100000000     0.000000000 1 1 1
     0.022187000     0.100000000     0.023771790 1 1 1
     0.044374010     0.100000000     0.047543580 1 1 1
     0.066561010     0.100000000     0.071315370 1 1 1
     0.088748020     0.100000000     0.095087160 1 1 1
     0.110935020     0.100000000     0.118858950 1 1 1
     0.133122030     0.100000000     0.142630740 1 1 1
     0.155309030     0.100000000     0.166402540 1 1 1
     0.177496040     0.100000000     0.190174330 1 1 1
     0.199683040     0.100000000     0.213946120 1 1 1
     0.221870050     0.100000000     0.237717910 1 1 1
     0.244057050     0.100000000     0.261489700 1 1 1
     0.266244060     0.100000000     0.285261490 1 1 1
     0.288431060     0.100000000     0.309033280 1 1 1
     0.310618070     0.100000000     0.332805070 1 1 1
     0.332805070     0.100000000     0.356576860 1 1 1
     0.354992080     0.100000000     0.380348650 1 1 1
     0.377179080     0.100000000     0.404120440 1 1 1
     0.399366090     0.100000000     0.427892230 1 1 1
     0.421553090     0.100000000     0.451664030 1 1 1
     0.443740100     0.100000000     0.475435820 1 1 1
     0.465927100     0.100000000     0.499207610 1 1 1
     0.488114100     0.100000000     0.522979400 1 1 1
     0.510301110     0.100000000     0.546751190 1 1 1
     0.532488110     0.100000000     0.570522980 1 1 1
     0.554675120     0.100000000     0.594294770 1 1 1
     0.576862120     0.100000000     0.618066560 1 1 1
     0.599049130     0.100000000     0.641838350 1 1 1
     0.621236130     0.100000000     0.665610140 1 1 1
     0.643423140     0.100000000     0.689381930 1 1 1
     0.665610140     0.100000000     0.713153720 1 1 1
     0.687797150     0.100000000     0.736925520 1 1 1
     0.709984150     0.100000000     0.760697310 1 1 1
     0.732171160     0.100000000     0.784469100 1 1 1
     0.754358160     0.100000000     0.808240890 1 1 1
     0.776545170     0.100000000     0.832012680 1 1 1
     0.798732170     0.100000000     0.855784470 1 1 1
     0.820919180     0.100000000     0.879556260 1 1 1
     0.843106180     0.100000000     0.903328050 1 1 1
     0.865293190     0.100000000     0.927099840 1 1 1
     0.887480190     0.100000000     0.950871630 1 1 1
     0.909667190     0.100000000     0.974643420 1 1 1
     0.931854200     0.100000000     0.998415210 1 1 1
     0.068145800     0.100000000     0.001584790 1 1 1
     0.090332810     0.100000000     0.025356580 1 1 1
     0.112519810     0.100000000     0.049128370 1 1 1
     0.134706810     0.100000000     0.072900160 1 1 1
     0.156893820     0.100000000     0.096671950 1 1 1
     0.179080820     0.100000000     0.120443740 1 1 1
     0.201267830     0.100000000     0.144215530 1 1 1
     0.223454830     0.100000000     0.167987320 1 1 1
     0.245641840     0.100000000     0.191759110 1 1 1
     0.267828840     0.100000000     0.215530900 1 1 1
     0.290015850     0.100000000     0.239302690 1 1 1
     0.312202850     0.100000000     0.263074480 1 1 1
     0.334389860     0.100000000     0.286846280 1 1 1
     0.356576860     0.100000000     0.310618070 1 1 1
     0.378763870     0.100000000     0.334389860 1 1 1
     0.400950870     0.100000000     0.358161650 1 1 1
     0.423137880     0.100000000     0.381933440 1 1 1
     0.445324880     0.100000000     0.405705230 1 1 1
     0.467511890     0.100000000     0.429477020 1 1 1
     0.489698890     0.100000000     0.453248810 1 1 1
     0.511885900     0.100000000     0.477020600 1 1 1
     0.534072900     0.100000000     0.500792390 1 1 1
     0.556259900     0.100000000     0.524564180 1 1 1
     0.578446910     0.100000000     0.548335970 1 1 1
     0.600633910     0.100000000     0.572107770 1 1 1
     0.622820920     0.100000000     0.595879560 1 1 1
     0.645007920     0.100000000     0.619651350 1 1 1
     0.667194930     0.100000000     0.643423140 1 1 1
     0.689381930     0.100000000     0.667194930 1 1 1
     0.711568940     0.100000000     0.690966720 1 1 1
     0.733755940     0.100000000     0.714738510 1 1 1
     0.755942950     0.100000000     0.738510300 1 1 1
     0.778129950     0.100000000     0.762282090 1 1 1
     0.800316960     0.100000000     0.786053880 1 1 1
     0.822503960     0.100000000     0.809825670 1 1 1
     0.844690970     0.100000000     0.833597460 1 1 1
     0.866877970     0.100000000     0.857369260 1 1 1
     0.889064980     0.100000000     0.881141050 1 1 1
     0.911251980     0.100000000     0.904912840 1 1 1
     0.933438990     0.100000000     0.928684630 1 1 1
     0.955625990     0.100000000     0.952456420 1 1 1
     0.977813000     0.100000000     0.976228210 1 1 1
     0.136291600     0.100000000     0.003169570 1 1 1
     0.158478610     0.100000000     0.026941360 1 1 1
     0.180665610     0.100000000     0.050713150 1 1 1
     0.202852610     0.100000000     0.074484940 1 1 1
     0.225039620     0.100000000     0.098256740 1 1 1
     0.247226620     0.100000000     0.122028530 1 1 1
     0.269413630     0.100000000     0.145800320 1 1 1
     0.291600630     0.100000000     0.169572110 1 1 1
     0.313787640     0.100000000     0.193343900 1 1 1
     0.335974640     0.100000000     0.217115690 1 1 1
     0.358161650     0.100000000     0.240887480 1 1 1
     0.380348650     0.100000000     0.264659270 1 1 1
     0.402535660     0.100000000     0.288431060 1 1 1
     0.424722660     0.100000000     0.312202850 1 1 1
     0.446909670     0.100000000     0.335974640 1 1 1
     0.469096670     0.100000000     0.359746430 1 1 1
     0.491283680     0.100000000     0.383518230 1 1 1
     0.513470680     0.100000000     0.407290020 1 1 1
     0.535657690     0.100000000     0.431061810 1 1 1
     0.557844690     0.100000000     0.454833600 1 1 1
     0.580031700     0.100000000     0.478605390 1 1 1
     0.602218700     0.100000000     0.502377180 1 1 1
     0.624405710     0.100000000     0.526148970 1 1 1
     0.646592710     0.100000000     0.549920760 1 1 1
     0.668779710     0.100000000     0.573692550 1 1 1
     0.690966720     0.100000000     0.597464340 1 1 1
     0.713153720     0.100000000     0.621236130 1 1 1
     0.735340730     0.100000000     0.645007920 1 1 1
     0.757527730     0.100000000     0.668779710 1 1 1
     0.779714740     0.100000000     0.692551510 1 1 1
     0.801901740     0.100000000     0.716323300 1 1 1
     0.824088750     0.100000000     0.740095090 1 1 1
     0.846275750     0.100000000     0.763866880 1 1 1
     0.868462760     0.100000000     0.787638670 1 1 1
     0.890649760     0.100000000     0.811410460 1 1 1
     0.912836770     0.100000000     0.835182250 1 1 1
     0.935023770     0.100000000     0.858954040 1 1 1
     0.957210780     0.100000000     0.882725830 1 1 1
     0.979397780     0.100000000     0.906497620 1 1 1
     0.204437400     0.100000000     0.004754360 1 1 1
     0.226624410     0.100000000     0.028526150 1 1 1
     0.248811410     0.100000000     0.052297940 1 1 1
     0.270998420     0.100000000     0.076069730 1 1 1
     0.293185420     0.100000000     0.099841520 1 1 1
     0.315372420     0.100000000     0.123613310 1 1 1
     0.337559430     0.100000000     0.147385100 1 1 1
     0.359746430     0.100000000     0.171156890 1 1 1
     0.381933440     0.100000000     0.194928680 1 1 1
     0.404120440     0.100000000     0.218700480 1 1 1
     0.426307450     0.100000000     0.242472270 1 1 1
     0.448494450     0.100000000     0.266244060 1 1 1
     0.470681460     0.100000000     0.290015850 1 1 1
     0.492868460     0.100000000     0.313787640 1 1 1
     0.515055470     0.100000000     0.337559430 1 1 1
     0.537242470     0.100000000     0.361331220 1 1 1
     0.559429480     0.100000000     0.385103010 1 1 1
     0.581616480     0.100000000     0.408874800 1 1 1
     0.603803490     0.100000000     0.432646590 1 1 1
     0.625990490     0.100000000     0.456418380 1 1 1
     0.648177500     0.100000000     0.480190170 1 1 1
     0.670364500     0.100000000     0.503961970 1 1 1
     0.692551510     0.100000000     0.527733760 1 1 1
     0.714738510     0.100000000     0.551505550 1 1 1
     0.736925520     0.100000000     0.575277340 1 1 1
     0.759112520     0.100000000     0.599049130 1 1 1
     0.781299520     0.100000000     0.622820920 1 1 1
     0.803486530     0.100000000     0.646592710 1 1 1
     0.825673530     0.100000000     0.670364500 1 1 1
     0.847860540     0.100000000     0.694136290 1 1 1
     0.870047540     0.100000000     0.717908080 1 1 1
     0.892234550     0.100000000     0.741679870 1 1 1
     0.914421550     0.100000000     0.765451660 1 1 1
     0.936608560     0.100000000     0.789223450 1 1 1
     0.958795560     0.100000000     0.812995250 1 1 1
     0.980982570     0.100000000     0.836767040 1 1 1
     0.272583200     0.100000000     0.006339140 1 1 1
     0.294770210     0.100000000     0.030110940 1 1 1
     0.316957210     0.100000000     0.053882730 1 1 1
     0.339144220     0.100000000     0.077654520 1 1 1
     0.361331220     0.100000000     0.101426310 1 1 1
     0.383518230     0.100000000     0.125198100 1 1 1
     0.405705230     0.100000000     0.148969890 1 1 1
     0.427892230     0.100000000     0.172741680 1 1 1
     0.450079240     0.100000000     0.196513470 1 1 1
     0.472266240     0.100000000     0.220285260 1 1 1
     0.494453250     0.100000000     0.244057050 1 1 1
     0.516640250     0.100000000     0.267828840 1 1 1
     0.538827260     0.100000000     0.291600630 1 1 1
     0.561014260     0.100000000     0.315372420 1 1 1
     0.583201270     0.100000000     0.339144220 1 1 1
     0.605388270     0.100000000     0.362916010 1 1 1
     0.627575280     0.100000000     0.386687800 1 1 1
     0.649762280     0.100000000     0.410459590 1 1 1
     0.671949290     0.100000000     0.434231380 1 1 1
     0.694136290     0.100000000     0.458003170 1 1 1
     0.716323300     0.100000000     0.481774960 1 1 1
     0.738510300     0.100000000     0.505546750 1 1 1
     0.760697310     0.100000000     0.529318540 1 1 1
     0.782884310     0.100000000     0.553090330 1 1 1
     0.805071320     0.100000000     0.576862120 1 1 1
     0.827258320     0.100000000     0.600633910 1 1 1
     0.849445320     0.100000000     0.624405710 1 1 1
     0.871632330     0.100000000     0.648177500 1 1 1
     0.893819330     0.100000000     0.671949290 1 1 1
     0.916006340     0.100000000     0.695721080 1 1 1
     0.938193340     0.100000000     0.719492870 1 1 1
     0.960380350     0.100000000     0.743264660 1 1 1
     0.982567350     0.100000000     0.767036450 1 1 1
     0.340729000     0.100000000     0.007923930 1 1 1
     0.362916010     0.100000000     0.031695720 1 1 1
     0.385103010     0.100000000     0.055467510 1 1 1
     0.407290020     0.100000000     0.079239300 1 1 1
     0.429477020     0.100000000     0.103011090 1 1 1
     0.451664030     0.100000000     0.126782880 1 1 1
     0.473851030     0.100000000     0.150554680 1 1 1
     0.496038030     0.100000000     0.174326470 1 1 1
     0.518225040     0.100000000     0.198098260 1 1 1
     0.540412040     0.100000000     0.221870050 1 1 1
     0.562599050     0.100000000     0.245641840 1 1 1
     0.584786050     0.100000000     0.269413630 1 1 1
     0.606973060     0.100000000     0.293185420 1 1 1
     0.629160060     0.100000000     0.316957210 1 1 1
     0.651347070     0.100000000     0.340729000 1 1 1
     0.673534070     0.100000000     0.364500790 1 1 1
     0.695721080     0.100000000     0.388272580 1 1 1
     0.717908080     0.100000000     0.412044370 1 1 1
     0.740095090     0.100000000     0.435816160 1 1 1
     0.762282090     0.100000000     0.459587960 1 1 1
     0.784469100     0.100000000     0.483359750 1 1 1
     0.806656100     0.100000000     0.507131540 1 1 1
     0.828843110     0.100000000     0.530903330 1 1 1
     0.851030110     0.100000000     0.554675120 1 1 1
     0.873217120     0.100000000     0.578446910 1 1 1
     0.895404120     0.100000000     0.602218700 1 1 1
     0.917591130     0.100000000     0.625990490 1 1 1
     0.939778130     0.100000000     0.649762280 1 1 1
     0.961965130     0.100000000     0.673534070 1 1 1
     0.984152140     0.100000000     0.697305860 1 1 1
     0.408874800     0.100000000     0.009508720 1 1 1
     0.431061810     0.100000000     0.033280510 1 1 1
     0.453248810     0.100000000     0.057052300 1 1 1
     0.475435820     0.100000000     0.080824090 1 1 1
     0.497622820     0.100000000     0.104595880 1 1 1
     0.519809830     0.100000000     0.128367670 1 1 1
     0.541996830     0.100000000     0.152139460 1 1 1
     0.564183840     0.100000000     0.175911250 1 1 1
     0.586370840     0.100000000     0.199683040 1 1 1
     0.608557840     0.100000000     0.223454830 1 1 1
     0.630744850     0.100000000     0.247226620 1 1 1
     0.652931850     0.100000000     0.270998420 1 1 1
     0.675118860     0.100000000     0.294770210 1 1 1
     0.697305860     0.100000000     0.318542000 1 1 1
     0.719492870     0.100000000     0.342313790 1 1 1
     0.741679870     0.100000000     0.366085580 1 1 1
     0.763866880     0.100000000     0.389857370 1 1 1
     0.786053880     0.100000000     0.413629160 1 1 1
     0.808240890     0.100000000     0.437400950 1 1 1
     0.830427890     0.100000000     0.461172740 1 1 1
     0.852614900     0.100000000     0.484944530 1 1 1
     0.874801900     0.100000000     0.508716320 1 1 1
     0.896988910     0.100000000     0.532488110 1 1 1
     0.919175910     0.100000000     0.556259900 1 1 1
     0.941362920     0.100000000     0.580031700 1 1 1
     0.963549920     0.100000000     0.603803490 1 1 1
     0.985736930     0.100000000     0.627575280 1 1 1
     0.477020600     0.100000000     0.011093500 1 1 1
     0.499207610     0.100000000     0.034865290 1 1 1
     0.521394610     0.100000000     0.058637080 1 1 1
     0.543581620     0.100000000     0.082408870 1 1 1
     0.565768620     0.100000000     0.106180670 1 1 1
     0.587955630     0.100000000     0.129952460 1 1 1
     0.610142630     0.100000000     0.153724250 1 1 1
     0.632329640     0.100000000     0.177496040 1 1 1
     0.654516640     0.100000000     0.201267830 1 1 1
     0.676703650     0.100000000     0.225039620 1 1 1
     0.698890650     0.100000000     0.248811410 1 1 1
     0.721077650     0.100000000     0.272583200 1 1 1
     0.743264660     0.100000000     0.296354990 1 1 1
     0.765451660     0.100000000     0.320126780 1 1 1
     0.787638670     0.100000000     0.343898570 1 1 1
     0.809825670     0.100000000     0.367670360 1 1 1