ATOMIC_SPECIES
C 6.000 ./C_ONCV_PBE-1.0.upf

NUMERICAL_ORBITAL
./C_gga_8au_100Ry_2s2p1d.orb

LATTICE_CONSTANT
1.889716

LATTICE_VECTORS
       102.0692503386       57.5097161708       0.0000000000
       -14.7264613750       26.1367812741       0.0000000000
       51.0346251693       28.7548580854       101.4599649569

ATOMIC_POSITIONS
Direct

C
0.0
9076
     0.000440720     0.100000000     0.963420010 1 1 1
     0.012340240     0.100000000     0.975760250 1 1 1
     0.024239750     0.100000000     0.988100480 1 1 1
     0.000881450     0.100000000     0.926840020 1 1 1
     0.012780960     0.100000000     0.939180260 1 1 1
     0.024680480     0.100000000     0.951520490 1 1 1
     0.036579990     0.100000000     0.963860730 1 1 1
     0.048479510     0.100000000     0.976200970 1 1 1
     0.060379020     0.100000000     0.988541210 1 1 1
     0.001322170     0.100000000     0.890260030 1 1 1
     0.013221680     0.100000000     0.902600260 1 1 1
     0.025121200     0.100000000     0.914940500 1 1 1
     0.037020710     0.100000000     0.927280740 1 1 1
     0.048920230     0.100000000     0.939620980 1 1 1
     0.060819740     0.100000000     0.951961220 1 1 1
     0.072719260     0.100000000     0.964301450 1 1 1
     0.084618770     0.100000000     0.976641690 1 1 1
     0.096518290     0.100000000     0.988981930 1 1 1
     0.001762890     0.100000000     0.853680040 1 1 1
     0.013662410     0.100000000     0.866020270 1 1 1
     0.025561920     0.100000000     0.878360510 1 1 1
     0.037461440     0.100000000     0.890700750 1 1 1
     0.049360950     0.100000000     0.903040990 1 1 1
     0.061260470     0.100000000     0.915381230 1 1 1
     0.073159980     0.100000000     0.927721460 1 1 1
     0.085059500     0.100000000     0.940061700 1 1 1
     0.096959010     0.100000000     0.952401940 1 1 1
     0.108858530     0.100000000     0.964742180 1 1 1
     0.120758040     0.100000000     0.977082420 1 1 1
     0.132657560     0.100000000     0.989422650 1 1 1
     0.002203610     0.100000000     0.817100040 1 1 1
     0.014103130     0.100000000     0.829440280 1 1 1
     0.026002640     0.100000000     0.841780520 1 1 1
     0.037902160     0.100000000     0.854120760 1 1 1
     0.049801670     0.100000000     0.866461000 1 1 1
     0.061701190     0.100000000     0.878801230 1 1 1
     0.073600710     0.100000000     0.891141470 1 1 1
     0.085500220     0.100000000     0.903481710 1 1 1
     0.097399740     0.100000000     0.915821950 1 1 1
     0.109299250     0.100000000     0.928162190 1 1 1
     0.121198770     0.100000000     0.940502420 1 1 1
     0.133098280     0.100000000     0.952842660 1 1 1
     0.144997800     0.100000000     0.965182900 1 1 1
     0.156897310     0.100000000     0.977523140 1 1 1
     0.168796830     0.100000000     0.989863380 1 1 1
     0.002644340     0.100000000     0.780520050 1 1 1
     0.014543850     0.100000000     0.792860290 1 1 1
     0.026443370     0.100000000     0.805200530 1 1 1
     0.038342880     0.100000000     0.817540770 1 1 1
     0.050242400     0.100000000     0.829881000 1 1 1
     0.062141910     0.100000000     0.842221240 1 1 1
     0.074041430     0.100000000     0.854561480 1 1 1
     0.085940940     0.100000000     0.866901720 1 1 1
     0.097840460     0.100000000     0.879241960 1 1 1
     0.109739970     0.100000000     0.891582190 1 1 1
     0.121639490     0.100000000     0.903922430 1 1 1
     0.133539000     0.100000000     0.916262670 1 1 1
     0.145438520     0.100000000     0.928602910 1 1 1
     0.157338030     0.100000000     0.940943150 1 1 1
     0.169237550     0.100000000     0.953283380 1 1 1
     0.181137060     0.100000000     0.965623620 1 1 1
     0.193036580     0.100000000     0.977963860 1 1 1
     0.204936100     0.100000000     0.990304100 1 1 1
     0.003085060     0.100000000     0.743940060 1 1 1
     0.014984570     0.100000000     0.756280300 1 1 1
     0.026884090     0.100000000     0.768620540 1 1 1
     0.038783610     0.100000000     0.780960780 1 1 1
     0.050683120     0.100000000     0.793301010 1 1 1
     0.062582640     0.100000000     0.805641250 1 1 1
     0.074482150     0.100000000     0.817981490 1 1 1
     0.086381670     0.100000000     0.830321730 1 1 1
     0.098281180     0.100000000     0.842661970 1 1 1
     0.110180700     0.100000000     0.855002200 1 1 1
     0.122080210     0.100000000     0.867342440 1 1 1
     0.133979730     0.100000000     0.879682680 1 1 1
     0.145879240     0.100000000     0.892022920 1 1 1
     0.157778760     0.100000000     0.904363160 1 1 1
     0.169678270     0.100000000     0.916703390 1 1 1
     0.181577790     0.100000000     0.929043630 1 1 1
     0.193477300     0.100000000     0.941383870 1 1 1
     0.205376820     0.100000000     0.953724110 1 1 1
     0.217276330     0.100000000     0.966064350 1 1 1
     0.229175850     0.100000000     0.978404580 1 1 1
     0.241075360     0.100000000     0.990744820 1 1 1
     0.003525780     0.100000000     0.707360070 1 1 1
     0.015425300     0.100000000     0.719700310 1 1 1
     0.027324810     0.100000000     0.732040550 1 1 1
     0.039224330     0.100000000     0.744380780 1 1 1
     0.051123840     0.100000000     0.756721020 1 1 1
     0.063023360     0.100000000     0.769061260 1 1 1
     0.074922870     0.100000000     0.781401500 1 1 1
     0.086822390     0.100000000     0.793741740 1 1 1
     0.098721900     0.100000000     0.806081970 1 1 1
     0.110621420     0.100000000     0.818422210 1 1 1
     0.122520930     0.100000000     0.830762450 1 1 1
     0.134420450     0.100000000     0.843102690 1 1 1
     0.146319960     0.100000000     0.855442930 1 1 1
     0.158219480     0.100000000     0.867783160 1 1 1
     0.170119000     0.100000000     0.880123400 1 1 1
     0.182018510     0.100000000     0.892463640 1 1 1
     0.193918030     0.100000000     0.904803880 1 1 1
     0.205817540     0.100000000     0.917144120 1 1 1
     0.217717060     0.100000000     0.929484350 1 1 1
     0.229616570     0.100000000     0.941824590 1 1 1
     0.241516090     0.100000000     0.954164830 1 1 1
     0.253415600     0.100000000     0.966505070 1 1 1
     0.265315120     0.100000000     0.978845310 1 1 1
     0.277214630     0.100000000     0.991185540 1 1 1
     0.003966510     0.100000000     0.670780080 1 1 1
     0.015866020     0.100000000     0.683120320 1 1 1
     0.027765540     0.100000000     0.695460560 1 1 1
     0.039665050     0.100000000     0.707800790 1 1 1
     0.051564570     0.100000000     0.720141030 1 1 1
     0.063464080     0.100000000     0.732481270 1 1 1
     0.075363600     0.100000000     0.744821510 1 1 1
     0.087263110     0.100000000     0.757161750 1 1 1
     0.099162630     0.100000000     0.769501980 1 1 1
     0.111062140     0.100000000     0.781842220 1 1 1
     0.122961660     0.100000000     0.794182460 1 1 1
     0.134861170     0.100000000     0.806522700 1 1 1
     0.146760690     0.100000000     0.818862940 1 1 1
     0.158660200     0.100000000     0.831203170 1 1 1
     0.170559720     0.100000000     0.843543410 1 1 1
     0.182459230     0.100000000     0.855883650 1 1 1
     0.194358750     0.100000000     0.868223890 1 1 1
     0.206258260     0.100000000     0.880564130 1 1 1
     0.218157780     0.100000000     0.892904360 1 1 1
     0.230057290     0.100000000     0.905244600 1 1 1
     0.241956810     0.100000000     0.917584840 1 1 1
     0.253856320     0.100000000     0.929925080 1 1 1
     0.265755840     0.100000000     0.942265320 1 1 1
     0.277655350     0.100000000     0.954605550 1 1 1
     0.289554870     0.100000000     0.966945790 1 1 1
     0.301454390     0.100000000     0.979286030 1 1 1
     0.313353900     0.100000000     0.991626270 1 1 1
     0.004407230     0.100000000     0.634200090 1 1 1
     0.016306740     0.100000000     0.646540330 1 1 1
     0.028206260     0.100000000     0.658880560 1 1 1
     0.040105770     0.100000000     0.671220800 1 1 1
     0.052005290     0.100000000     0.683561040 1 1 1
     0.063904800     0.100000000     0.695901280 1 1 1
     0.075804320     0.100000000     0.708241520 1 1 1
     0.087703830     0.100000000     0.720581750 1 1 1
     0.099603350     0.100000000     0.732921990 1 1 1
     0.111502860     0.100000000     0.745262230 1 1 1
     0.123402380     0.100000000     0.757602470 1 1 1
     0.135301900     0.100000000     0.769942710 1 1 1
     0.147201410     0.100000000     0.782282940 1 1 1
     0.159100930     0.100000000     0.794623180 1 1 1
     0.171000440     0.100000000     0.806963420 1 1 1
     0.182899960     0.100000000     0.819303660 1 1 1
     0.194799470     0.100000000     0.831643900 1 1 1
     0.206698990     0.100000000     0.843984130 1 1 1
     0.218598500     0.100000000     0.856324370 1 1 1
     0.230498020     0.100000000     0.868664610 1 1 1
     0.242397530     0.100000000     0.881004850 1 1 1
     0.254297050     0.100000000     0.893345090 1 1 1
     0.266196560     0.100000000     0.905685320 1 1 1
     0.278096080     0.100000000     0.918025560 1 1 1
     0.289995590     0.100000000     0.930365800 1 1 1
     0.301895110     0.100000000     0.942706040 1 1 1
     0.313794620     0.100000000     0.955046280 1 1 1
     0.325694140     0.100000000     0.967386510 1 1 1
     0.337593650     0.100000000     0.979726750 1 1 1
     0.349493170     0.100000000     0.992066990 1 1 1
     0.004847950     0.100000000     0.597620100 1 1 1
     0.016747470     0.100000000     0.609960330 1 1 1
     0.028646980     0.100000000     0.622300570 1 1 1
     0.040546500     0.100000000     0.634640810 1 1 1
     0.052446010     0.100000000     0.646981050 1 1 1
     0.064345530     0.100000000     0.659321290 1 1 1
     0.076245040     0.100000000     0.671661520 1 1 1
     0.088144560     0.100000000     0.684001760 1 1 1
     0.100044070     0.100000000     0.696342000 1 1 1
     0.111943590     0.100000000     0.708682240 1 1 1
     0.123843100     0.100000000     0.721022480 1 1 1
     0.135742620     0.100000000     0.733362710 1 1 1
     0.147642130     0.100000000     0.745702950 1 1 1
     0.159541650     0.100000000     0.758043190 1 1 1
     0.171441160     0.100000000     0.770383430 1 1 1
     0.183340680     0.100000000     0.782723670 1 1 1
     0.195240190     0.100000000     0.795063900 1 1 1
     0.207139710     0.100000000     0.807404140 1 1 1
     0.219039220     0.100000000     0.819744380 1 1 1
     0.230938740     0.100000000     0.832084620 1 1 1
     0.242838250     0.100000000     0.844424860 1 1 1
     0.254737770     0.100000000     0.856765090 1 1 1
     0.266637290     0.100000000     0.869105330 1 1 1
     0.278536800     0.100000000     0.881445570 1 1 1
     0.290436320     0.100000000     0.893785810 1 1 1
     0.302335830     0.100000000     0.906126050 1 1 1
     0.314235350     0.100000000     0.918466280 1 1 1
     0.326134860     0.100000000     0.930806520 1 1 1
     0.338034380     0.100000000     0.943146760 1 1 1
     0.349933890     0.100000000     0.955487000 1 1 1
     0.361833410     0.100000000     0.967827240 1 1 1
     0.373732920     0.100000000     0.980167470 1 1 1
     0.385632440     0.100000000     0.992507710 1 1 1
     0.005288670     0.100000000     0.561040110 1 1 1
     0.017188190     0.100000000     0.573380340 1 1 1
     0.029087700     0.100000000     0.585720580 1 1 1
     0.040987220     0.100000000     0.598060820 1 1 1
     0.052886730     0.100000000     0.610401060 1 1 1
     0.064786250     0.100000000     0.622741300 1 1 1
     0.076685760     0.100000000     0.635081530 1 1 1
     0.088585280     0.100000000     0.647421770 1 1 1
     0.100484800     0.100000000     0.659762010 1 1 1
     0.112384310     0.100000000     0.672102250 1 1 1
     0.124283830     0.100000000     0.684442490 1 1 1
     0.136183340     0.100000000     0.696782720 1 1 1
     0.148082860     0.100000000     0.709122960 1 1 1
     0.159982370     0.100000000     0.721463200 1 1 1
     0.171881890     0.100000000     0.733803440 1 1 1
     0.183781400     0.100000000     0.746143680 1 1 1
     0.195680920     0.100000000     0.758483910 1 1 1
     0.207580430     0.100000000     0.770824150 1 1 1
     0.219479950     0.100000000     0.783164390 1 1 1
     0.231379460     0.100000000     0.795504630 1 1 1
     0.243278980     0.100000000     0.807844870 1 1 1
     0.255178490     0.100000000     0.820185100 1 1 1
     0.267078010     0.100000000     0.832525340 1 1 1
     0.278977520     0.100000000     0.844865580 1 1 1
     0.290877040     0.100000000     0.857205820 1 1 1
     0.302776550     0.100000000     0.869546060 1 1 1
     0.314676070     0.100000000     0.881886290 1 1 1
     0.326575580     0.100000000     0.894226530 1 1 1
     0.338475100     0.100000000     0.906566770 1 1 1
     0.350374610     0.100000000     0.918907010 1 1 1
     0.362274130     0.100000000     0.931247250 1 1 1
     0.374173640     0.100000000     0.943587480 1 1 1
     0.386073160     0.100000000     0.955927720 1 1 1
     0.397972680     0.100000000     0.968267960 1 1 1
     0.409872190     0.100000000     0.980608200 1 1 1
     0.421771710     0.100000000     0.992948440 1 1 1
     0.005729400     0.100000000     0.524460110 1 1 1
     0.017628910     0.100000000     0.536800350 1 1 1
     0.029528430     0.100000000     0.549140590 1 1 1
     0.041427940     0.100000000     0.561480830 1 1 1
     0.053327460     0.100000000     0.573821070 1 1 1
     0.065226970     0.100000000     0.586161300 1 1 1
     0.077126490     0.100000000     0.598501540 1 1 1
     0.089026000     0.100000000     0.610841780 1 1 1
     0.100925520     0.100000000     0.623182020 1 1 1
     0.112825030     0.100000000     0.635522260 1 1 1
     0.124724550     0.100000000     0.647862490 1 1 1
     0.136624060     0.100000000     0.660202730 1 1 1
     0.148523580     0.100000000     0.672542970 1 1 1
     0.160423090     0.100000000     0.684883210 1 1 1
     0.172322610     0.100000000     0.697223450 1 1 1
     0.184222120     0.100000000     0.709563680 1 1 1
     0.196121640     0.100000000     0.721903920 1 1 1
     0.208021150     0.100000000     0.734244160 1 1 1
     0.219920670     0.100000000     0.746584400 1 1 1
     0.231820190     0.100000000     0.758924640 1 1 1
     0.243719700     0.100000000     0.771264870 1 1 1
     0.255619220     0.100000000     0.783605110 1 1 1
     0.267518730     0.100000000     0.795945350 1 1 1
     0.279418250     0.100000000     0.808285590 1 1 1
     0.291317760     0.100000000     0.820625830 1 1 1
     0.303217280     0.100000000     0.832966060 1 1 1
     0.315116790     0.100000000     0.845306300 1 1 1
     0.327016310     0.100000000     0.857646540 1 1 1
     0.338915820     0.100000000     0.869986780 1 1 1
     0.350815340     0.100000000     0.882327020 1 1 1
     0.362714850     0.100000000     0.894667250 1 1 1
     0.374614370     0.100000000     0.907007490 1 1 1
     0.386513880     0.100000000     0.919347730 1 1 1
     0.398413400     0.100000000     0.931687970 1 1 1
     0.410312910     0.100000000     0.944028210 1 1 1
     0.422212430     0.100000000     0.956368440 1 1 1
     0.434111940     0.100000000     0.968708680 1 1 1
     0.446011460     0.100000000     0.981048920 1 1 1
     0.457910970     0.100000000     0.993389160 1 1 1
     0.006170120     0.100000000     0.487880120 1 1 1
     0.018069630     0.100000000     0.500220360 1 1 1
     0.029969150     0.100000000     0.512560600 1 1 1
     0.041868660     0.100000000     0.524900840 1 1 1
     0.053768180     0.100000000     0.537241080 1 1 1
     0.065667700     0.100000000     0.549581310 1 1 1
     0.077567210     0.100000000     0.561921550 1 1 1
     0.089466730     0.100000000     0.574261790 1 1 1
     0.101366240     0.100000000     0.586602030 1 1 1
     0.113265760     0.100000000     0.598942270 1 1 1
     0.125165270     0.100000000     0.611282500 1 1 1
     0.137064790     0.100000000     0.623622740 1 1 1
     0.148964300     0.100000000     0.635962980 1 1 1
     0.160863820     0.100000000     0.648303220 1 1 1
     0.172763330     0.100000000     0.660643460 1 1 1
     0.184662850     0.100000000     0.672983690 1 1 1
     0.196562360     0.100000000     0.685323930 1 1 1
     0.208461880     0.100000000     0.697664170 1 1 1
     0.220361390     0.100000000     0.710004410 1 1 1
     0.232260910     0.100000000     0.722344650 1 1 1
     0.244160420     0.100000000     0.734684880 1 1 1
     0.256059940     0.100000000     0.747025120 1 1 1
     0.267959450     0.100000000     0.759365360 1 1 1
     0.279858970     0.100000000     0.771705600 1 1 1
     0.291758480     0.100000000     0.784045840 1 1 1
     0.303658000     0.100000000     0.796386070 1 1 1
     0.315557510     0.100000000     0.808726310 1 1 1
     0.327457030     0.100000000     0.821066550 1 1 1
     0.339356540     0.100000000     0.833406790 1 1 1
     0.351256060     0.100000000     0.845747030 1 1 1
     0.363155580     0.100000000     0.858087260 1 1 1
     0.375055090     0.100000000     0.870427500 1 1 1
     0.386954610     0.100000000     0.882767740 1 1 1
     0.398854120     0.100000000     0.895107980 1 1 1
     0.410753640     0.100000000     0.907448220 1 1 1
     0.422653150     0.100000000     0.919788450 1 1 1
     0.434552670     0.100000000     0.932128690 1 1 1
     0.446452180     0.100000000     0.944468930 1 1 1
     0.458351700     0.100000000     0.956809170 1 1 1
     0.470251210     0.100000000     0.969149410 1 1 1
     0.482150730     0.100000000     0.981489640 1 1 1
     0.494050240     0.100000000     0.993829880 1 1 1
     0.006610840     0.100000000     0.451300130 1 1 1
     0.018510360     0.100000000     0.463640370 1 1 1
     0.030409870     0.100000000     0.475980610 1 1 1
     0.042309390     0.100000000     0.488320850 1 1 1
     0.054208900     0.100000000     0.500661080 1 1 1
     0.066108420     0.100000000     0.513001320 1 1 1
     0.078007930     0.100000000     0.525341560 1 1 1
     0.089907450     0.100000000     0.537681800 1 1 1
     0.101806960     0.100000000     0.550022040 1 1 1
     0.113706480     0.100000000     0.562362270 1 1 1
     0.125605990     0.100000000     0.574702510 1 1 1
     0.137505510     0.100000000     0.587042750 1 1 1
     0.149405020     0.100000000     0.599382990 1 1 1
     0.161304540     0.100000000     0.611723230 1 1 1
     0.173204050     0.100000000     0.624063460 1 1 1
     0.185103570     0.100000000     0.636403700 1 1 1
     0.197003090     0.100000000     0.648743940 1 1 1
     0.208902600     0.100000000     0.661084180 1 1 1
     0.220802120     0.100000000     0.673424420 1 1 1
     0.232701630     0.100000000     0.685764650 1 1 1
     0.244601150     0.100000000     0.698104890 1 1 1
     0.256500660     0.100000000     0.710445130 1 1 1
     0.268400180     0.100000000     0.722785370 1 1 1
     0.280299690     0.100000000     0.735125610 1 1 1
     0.292199210     0.100000000     0.747465840 1 1 1
     0.304098720     0.100000000     0.759806080 1 1 1
     0.315998240     0.100000000     0.772146320 1 1 1
     0.327897750     0.100000000     0.784486560 1 1 1
     0.339797270     0.100000000     0.796826800 1 1 1
     0.351696780     0.100000000     0.809167030 1 1 1
     0.363596300     0.100000000     0.821507270 1 1 1
     0.375495810     0.100000000     0.833847510 1 1 1
     0.387395330     0.100000000     0.846187750 1 1 1
     0.399294840     0.100000000     0.858527990 1 1 1
     0.411194360     0.100000000     0.870868220 1 1 1
     0.423093870     0.100000000     0.883208460 1 1 1
     0.434993390     0.100000000     0.895548700 1 1 1
     0.446892900     0.100000000     0.907888940 1 1 1
     0.458792420     0.100000000     0.920229180 1 1 1
     0.470691930     0.100000000     0.932569410 1 1 1
     0.482591450     0.100000000     0.944909650 1 1 1
     0.494490970     0.100000000     0.957249890 1 1 1
     0.506390480     0.100000000     0.969590130 1 1 1
     0.518290000     0.100000000     0.981930370 1 1 1
     0.530189510     0.100000000     0.994270600 1 1 1
     0.007051560     0.100000000     0.414720140 1 1 1
     0.018951080     0.100000000     0.427060380 1 1 1
     0.030850590     0.100000000     0.439400620 1 1 1
     0.042750110     0.100000000     0.451740860 1 1 1
     0.054649630     0.100000000     0.464081090 1 1 1
     0.066549140     0.100000000     0.476421330 1 1 1
     0.078448660     0.100000000     0.488761570 1 1 1
     0.090348170     0.100000000     0.501101810 1 1 1
     0.102247690     0.100000000     0.513442040 1 1 1
     0.114147200     0.100000000     0.525782280 1 1 1
     0.126046720     0.100000000     0.538122520 1 1 1
     0.137946230     0.100000000     0.550462760 1 1 1
     0.149845750     0.100000000     0.562803000 1 1 1
     0.161745260     0.100000000     0.575143230 1 1 1
     0.173644780     0.100000000     0.587483470 1 1 1
     0.185544290     0.100000000     0.599823710 1 1 1
     0.197443810     0.100000000     0.612163950 1 1 1
     0.209343320     0.100000000     0.624504190 1 1 1
     0.221242840     0.100000000     0.636844420 1 1 1
     0.233142350     0.100000000     0.649184660 1 1 1
     0.245041870     0.100000000     0.661524900 1 1 1
     0.256941380     0.100000000     0.673865140 1 1 1
     0.268840900     0.100000000     0.686205380 1 1 1
     0.280740410     0.100000000     0.698545610 1 1 1
     0.292639930     0.100000000     0.710885850 1 1 1
     0.304539440     0.100000000     0.723226090 1 1 1
     0.316438960     0.100000000     0.735566330 1 1 1
     0.328338480     0.100000000     0.747906570 1 1 1
     0.340237990     0.100000000     0.760246800 1 1 1
     0.352137510     0.100000000     0.772587040 1 1 1
     0.364037020     0.100000000     0.784927280 1 1 1
     0.375936540     0.100000000     0.797267520 1 1 1
     0.387836050     0.100000000     0.809607760 1 1 1
     0.399735570     0.100000000     0.821947990 1 1 1
     0.411635080     0.100000000     0.834288230 1 1 1
     0.423534600     0.100000000     0.846628470 1 1 1
     0.435434110     0.100000000     0.858968710 1 1 1
     0.447333630     0.100000000     0.871308950 1 1 1
     0.459233140     0.100000000     0.883649180 1 1 1
     0.471132660     0.100000000     0.895989420 1 1 1
     0.483032170     0.100000000     0.908329660 1 1 1
     0.494931690     0.100000000     0.920669900 1 1 1
     0.506831200     0.100000000     0.933010140 1 1 1
     0.518730720     0.100000000     0.945350370 1 1 1
     0.530630230     0.100000000     0.957690610 1 1 1
     0.542529750     0.100000000     0.970030850 1 1 1
     0.554429260     0.100000000     0.982371090 1 1 1
     0.566328780     0.100000000     0.994711330 1 1 1
     0.007492290     0.100000000     0.378140150 1 1 1
     0.019391800     0.100000000     0.390480390 1 1 1
     0.031291320     0.100000000     0.402820630 1 1 1
     0.043190830     0.100000000     0.415160860 1 1 1
     0.055090350     0.100000000     0.427501100 1 1 1
     0.066989860     0.100000000     0.439841340 1 1 1
     0.078889380     0.100000000     0.452181580 1 1 1
     0.090788890     0.100000000     0.464521820 1 1 1
     0.102688410     0.100000000     0.476862050 1 1 1
     0.114587920     0.100000000     0.489202290 1 1 1
     0.126487440     0.100000000     0.501542530 1 1 1
     0.138386950     0.100000000     0.513882770 1 1 1
     0.150286470     0.100000000     0.526223010 1 1 1
     0.162185990     0.100000000     0.538563240 1 1 1
     0.174085500     0.100000000     0.550903480 1 1 1
     0.185985020     0.100000000     0.563243720 1 1 1
     0.197884530     0.100000000     0.575583960 1 1 1
     0.209784050     0.100000000     0.587924200 1 1 1
     0.221683560     0.100000000     0.600264430 1 1 1
     0.233583080     0.100000000     0.612604670 1 1 1
     0.245482590     0.100000000     0.624944910 1 1 1
     0.257382110     0.100000000     0.637285150 1 1 1
     0.269281620     0.100000000     0.649625390 1 1 1
     0.281181140     0.100000000     0.661965620 1 1 1
     0.293080650     0.100000000     0.674305860 1 1 1
     0.304980170     0.100000000     0.686646100 1 1 1
     0.316879680     0.100000000     0.698986340 1 1 1
     0.328779200     0.100000000     0.711326580 1 1 1
     0.340678710     0.100000000     0.723666810 1 1 1
     0.352578230     0.100000000     0.736007050 1 1 1
     0.364477740     0.100000000     0.748347290 1 1 1
     0.376377260     0.100000000     0.760687530 1 1 1
     0.388276770     0.100000000     0.773027770 1 1 1
     0.400176290     0.100000000     0.785368000 1 1 1
     0.412075800     0.100000000     0.797708240 1 1 1
     0.423975320     0.100000000     0.810048480 1 1 1
     0.435874830     0.100000000     0.822388720 1 1 1
     0.447774350     0.100000000     0.834728960 1 1 1
     0.459673870     0.100000000     0.847069190 1 1 1
     0.471573380     0.100000000     0.859409430 1 1 1
     0.483472900     0.100000000     0.871749670 1 1 1
     0.495372410     0.100000000     0.884089910 1 1 1
     0.507271930     0.100000000     0.896430150 1 1 1
     0.519171440     0.100000000     0.908770380 1 1 1
     0.531070960     0.100000000     0.921110620 1 1 1
     0.542970470     0.100000000     0.933450860 1 1 1
     0.554869990     0.100000000     0.945791100 1 1 1
     0.566769500     0.100000000     0.958131340 1 1 1
     0.578669020     0.100000000     0.970471570 1 1 1
     0.590568530     0.100000000     0.982811810 1 1 1
     0.602468050     0.100000000     0.995152050 1 1 1
     0.007933010     0.100000000     0.341560160 1 1 1
     0.019832530     0.100000000     0.353900400 1 1 1
     0.031732040     0.100000000     0.366240630 1 1 1
     0.043631560     0.100000000     0.378580870 1 1 1
     0.055531070     0.100000000     0.390921110 1 1 1
     0.067430590     0.100000000     0.403261350 1 1 1
     0.079330100     0.100000000     0.415601590 1 1 1
     0.091229620     0.100000000     0.427941820 1 1 1
     0.103129130     0.100000000     0.440282060 1 1 1
     0.115028650     0.100000000     0.452622300 1 1 1
     0.126928160     0.100000000     0.464962540 1 1 1
     0.138827680     0.100000000     0.477302780 1 1 1
     0.150727190     0.100000000     0.489643010 1 1 1
     0.162626710     0.100000000     0.501983250 1 1 1
     0.174526220     0.100000000     0.514323490 1 1 1
     0.186425740     0.100000000     0.526663730 1 1 1
     0.198325250     0.100000000     0.539003970 1 1 1
     0.210224770     0.100000000     0.551344200 1 1 1
     0.222124280     0.100000000     0.563684440 1 1 1
     0.234023800     0.100000000     0.576024680 1 1 1
     0.245923310     0.100000000     0.588364920 1 1 1
     0.257822830     0.100000000     0.600705160 1 1 1
     0.269722340     0.100000000     0.613045390 1 1 1
     0.281621860     0.100000000     0.625385630 1 1 1
     0.293521380     0.100000000     0.637725870 1 1 1
     0.305420890     0.100000000     0.650066110 1 1 1
     0.317320410     0.100000000     0.662406350 1 1 1
     0.329219920     0.100000000     0.674746580 1 1 1
     0.341119440     0.100000000     0.687086820 1 1 1
     0.353018950     0.100000000     0.699427060 1 1 1
     0.364918470     0.100000000     0.711767300 1 1 1
     0.376817980     0.100000000     0.724107540 1 1 1
     0.388717500     0.100000000     0.736447770 1 1 1
     0.400617010     0.100000000     0.748788010 1 1 1
     0.412516530     0.100000000     0.761128250 1 1 1
     0.424416040     0.100000000     0.773468490 1 1 1
     0.436315560     0.100000000     0.785808730 1 1 1
     0.448215070     0.100000000     0.798148960 1 1 1
     0.460114590     0.100000000     0.810489200 1 1 1
     0.472014100     0.100000000     0.822829440 1 1 1
     0.483913620     0.100000000     0.835169680 1 1 1
     0.495813130     0.100000000     0.847509920 1 1 1
     0.507712650     0.100000000     0.859850150 1 1 1
     0.519612160     0.100000000     0.872190390 1 1 1
     0.531511680     0.100000000     0.884530630 1 1 1
     0.543411190     0.100000000     0.896870870 1 1 1
     0.555310710     0.100000000     0.909211110 1 1 1
     0.567210220     0.100000000     0.921551340 1 1 1
     0.579109740     0.100000000     0.933891580 1 1 1
     0.591009260     0.100000000     0.946231820 1 1 1
     0.602908770     0.100000000     0.958572060 1 1 1
     0.614808290     0.100000000     0.970912300 1 1 1
     0.626707800     0.100000000     0.983252530 1 1 1
     0.638607320     0.100000000     0.995592770 1 1 1
     0.008373730     0.100000000     0.304980170 1 1 1
     0.020273250     0.100000000     0.317320410 1 1 1
     0.032172760     0.100000000     0.329660640 1 1 1
     0.044072280     0.100000000     0.342000880 1 1 1
     0.055971790     0.100000000     0.354341120 1 1 1
     0.067871310     0.100000000     0.366681360 1 1 1
     0.079770820     0.100000000     0.379021600 1 1 1
     0.091670340     0.100000000     0.391361830 1 1 1
     0.103569850     0.100000000     0.403702070 1 1 1
     0.115469370     0.100000000     0.416042310 1 1 1
     0.127368880     0.100000000     0.428382550 1 1 1
     0.139268400     0.100000000     0.440722790 1 1 1
     0.151167920     0.100000000     0.453063020 1 1 1
     0.163067430     0.100000000     0.465403260 1 1 1
     0.174966950     0.100000000     0.477743500 1 1 1
     0.186866460     0.100000000     0.490083740 1 1 1
     0.198765980     0.100000000     0.502423980 1 1 1
     0.210665490     0.100000000     0.514764210 1 1 1
     0.222565010     0.100000000     0.527104450 1 1 1
     0.234464520     0.100000000     0.539444690 1 1 1
     0.246364040     0.100000000     0.551784930 1 1 1
     0.258263550     0.100000000     0.564125170 1 1 1
     0.270163070     0.100000000     0.576465400 1 1 1
     0.282062580     0.100000000     0.588805640 1 1 1
     0.293962100     0.100000000     0.601145880 1 1 1