ATOMIC_SPECIES
C 6.000 /mnt/C_ONCV_PBE-1.0.upf

NUMERICAL_ORBITAL
/mnt/C_gga_8au_100Ry_2s2p1d.orb

LATTICE_CONSTANT
1.889716

LATTICE_VECTORS
       50.41975000       27.68986325       0.00000000
       1.22975000       57.50971598       0.00000000
       0.00000000       0.00000000       30.00000000

ATOMIC_POSITIONS
Direct

C
0.0
2188
     0.00182815     0.92504570     0.10000000 1 1 1
     0.02559415     0.95063985     0.10000000 1 1 1
     0.04936015     0.97623400     0.10000000 1 1 1
     0.00365631     0.85009141     0.10000000 1 1 1
     0.02742230     0.87568556     0.10000000 1 1 1
     0.05118830     0.90127971     0.10000000 1 1 1
     0.07495430     0.92687386     0.10000000 1 1 1
     0.09872029     0.95246801     0.10000000 1 1 1
     0.12248629     0.97806216     0.10000000 1 1 1
     0.00548446     0.77513711     0.10000000 1 1 1
     0.02925046     0.80073126     0.10000000 1 1 1
     0.05301645     0.82632541     0.10000000 1 1 1
     0.07678245     0.85191956     0.10000000 1 1 1
     0.10054845     0.87751371     0.10000000 1 1 1
     0.12431444     0.90310786     0.10000000 1 1 1
     0.14808044     0.92870201     0.10000000 1 1 1
     0.17184644     0.95429616     0.10000000 1 1 1
     0.19561243     0.97989031     0.10000000 1 1 1
     0.00731261     0.70018282     0.10000000 1 1 1
     0.03107861     0.72577697     0.10000000 1 1 1
     0.05484461     0.75137112     0.10000000 1 1 1
     0.07861060     0.77696527     0.10000000 1 1 1
     0.10237660     0.80255941     0.10000000 1 1 1
     0.12614260     0.82815356     0.10000000 1 1 1
     0.14990859     0.85374771     0.10000000 1 1 1
     0.17367459     0.87934186     0.10000000 1 1 1
     0.19744059     0.90493601     0.10000000 1 1 1
     0.22120658     0.93053016     0.10000000 1 1 1
     0.24497258     0.95612431     0.10000000 1 1 1
     0.26873857     0.98171846     0.10000000 1 1 1
     0.00914077     0.62522852     0.10000000 1 1 1
     0.03290676     0.65082267     0.10000000 1 1 1
     0.05667276     0.67641682     0.10000000 1 1 1
     0.08043876     0.70201097     0.10000000 1 1 1
     0.10420475     0.72760512     0.10000000 1 1 1
     0.12797075     0.75319927     0.10000000 1 1 1
     0.15173675     0.77879342     0.10000000 1 1 1
     0.17550274     0.80438757     0.10000000 1 1 1
     0.19926874     0.82998172     0.10000000 1 1 1
     0.22303473     0.85557587     0.10000000 1 1 1
     0.24680073     0.88117002     0.10000000 1 1 1
     0.27056673     0.90676417     0.10000000 1 1 1
     0.29433272     0.93235832     0.10000000 1 1 1
     0.31809872     0.95795247     0.10000000 1 1 1
     0.34186472     0.98354662     0.10000000 1 1 1
     0.01096892     0.55027422     0.10000000 1 1 1
     0.03473492     0.57586837     0.10000000 1 1 1
     0.05850091     0.60146252     0.10000000 1 1 1
     0.08226691     0.62705667     0.10000000 1 1 1
     0.10603291     0.65265082     0.10000000 1 1 1
     0.12979890     0.67824497     0.10000000 1 1 1
     0.15356490     0.70383912     0.10000000 1 1 1
     0.17733090     0.72943327     0.10000000 1 1 1
     0.20109689     0.75502742     0.10000000 1 1 1
     0.22486289     0.78062157     0.10000000 1 1 1
     0.24862888     0.80621572     0.10000000 1 1 1
     0.27239488     0.83180987     0.10000000 1 1 1
     0.29616088     0.85740402     0.10000000 1 1 1
     0.31992687     0.88299817     0.10000000 1 1 1
     0.34369287     0.90859232     0.10000000 1 1 1
     0.36745887     0.93418647     0.10000000 1 1 1
     0.39122486     0.95978062     0.10000000 1 1 1
     0.41499086     0.98537477     0.10000000 1 1 1
     0.01279707     0.47531993     0.10000000 1 1 1
     0.03656307     0.50091408     0.10000000 1 1 1
     0.06032907     0.52650823     0.10000000 1 1 1
     0.08409506     0.55210238     0.10000000 1 1 1
     0.10786106     0.57769653     0.10000000 1 1 1
     0.13162706     0.60329068     0.10000000 1 1 1
     0.15539305     0.62888483     0.10000000 1 1 1
     0.17915905     0.65447898     0.10000000 1 1 1
     0.20292505     0.68007313     0.10000000 1 1 1
     0.22669104     0.70566728     0.10000000 1 1 1
     0.25045704     0.73126143     0.10000000 1 1 1
     0.27422303     0.75685558     0.10000000 1 1 1
     0.29798903     0.78244973     0.10000000 1 1 1
     0.32175503     0.80804388     0.10000000 1 1 1
     0.34552102     0.83363803     0.10000000 1 1 1
     0.36928702     0.85923218     0.10000000 1 1 1
     0.39305302     0.88482633     0.10000000 1 1 1
     0.41681901     0.91042048     0.10000000 1 1 1
     0.44058501     0.93601463     0.10000000 1 1 1
     0.46435101     0.96160878     0.10000000 1 1 1
     0.48811700     0.98720293     0.10000000 1 1 1
     0.01462523     0.40036563     0.10000000 1 1 1
     0.03839122     0.42595978     0.10000000 1 1 1
     0.06215722     0.45155393     0.10000000 1 1 1
     0.08592322     0.47714808     0.10000000 1 1 1
     0.10968921     0.50274223     0.10000000 1 1 1
     0.13345521     0.52833638     0.10000000 1 1 1
     0.15722121     0.55393053     0.10000000 1 1 1
     0.18098720     0.57952468     0.10000000 1 1 1
     0.20475320     0.60511883     0.10000000 1 1 1
     0.22851920     0.63071298     0.10000000 1 1 1
     0.25228519     0.65630713     0.10000000 1 1 1
     0.27605119     0.68190128     0.10000000 1 1 1
     0.29981718     0.70749543     0.10000000 1 1 1
     0.32358318     0.73308958     0.10000000 1 1 1
     0.34734918     0.75868373     0.10000000 1 1 1
     0.37111517     0.78427788     0.10000000 1 1 1
     0.39488117     0.80987203     0.10000000 1 1 1
     0.41864717     0.83546618     0.10000000 1 1 1
     0.44241316     0.86106033     0.10000000 1 1 1
     0.46617916     0.88665448     0.10000000 1 1 1
     0.48994516     0.91224863     0.10000000 1 1 1
     0.51371115     0.93784278     0.10000000 1 1 1
     0.53747715     0.96343693     0.10000000 1 1 1
     0.56124314     0.98903108     0.10000000 1 1 1
     0.01645338     0.32541133     0.10000000 1 1 1
     0.04021938     0.35100548     0.10000000 1 1 1
     0.06398537     0.37659963     0.10000000 1 1 1
     0.08775137     0.40219378     0.10000000 1 1 1
     0.11151737     0.42778793     0.10000000 1 1 1
     0.13528336     0.45338208     0.10000000 1 1 1
     0.15904936     0.47897623     0.10000000 1 1 1
     0.18281536     0.50457038     0.10000000 1 1 1
     0.20658135     0.53016453     0.10000000 1 1 1
     0.23034735     0.55575868     0.10000000 1 1 1
     0.25411335     0.58135283     0.10000000 1 1 1
     0.27787934     0.60694698     0.10000000 1 1 1
     0.30164534     0.63254113     0.10000000 1 1 1
     0.32541133     0.65813528     0.10000000 1 1 1
     0.34917733     0.68372943     0.10000000 1 1 1
     0.37294333     0.70932358     0.10000000 1 1 1
     0.39670932     0.73491773     0.10000000 1 1 1
     0.42047532     0.76051188     0.10000000 1 1 1
     0.44424132     0.78610603     0.10000000 1 1 1
     0.46800731     0.81170018     0.10000000 1 1 1
     0.49177331     0.83729433     0.10000000 1 1 1
     0.51553931     0.86288848     0.10000000 1 1 1
     0.53930530     0.88848263     0.10000000 1 1 1
     0.56307130     0.91407678     0.10000000 1 1 1
     0.58683729     0.93967093     0.10000000 1 1 1
     0.61060329     0.96526508     0.10000000 1 1 1
     0.63436929     0.99085923     0.10000000 1 1 1
     0.01828154     0.25045704     0.10000000 1 1 1
     0.04204753     0.27605119     0.10000000 1 1 1
     0.06581353     0.30164534     0.10000000 1 1 1
     0.08957952     0.32723949     0.10000000 1 1 1
     0.11334552     0.35283364     0.10000000 1 1 1
     0.13711152     0.37842779     0.10000000 1 1 1
     0.16087751     0.40402194     0.10000000 1 1 1
     0.18464351     0.42961609     0.10000000 1 1 1
     0.20840951     0.45521024     0.10000000 1 1 1
     0.23217550     0.48080439     0.10000000 1 1 1
     0.25594150     0.50639854     0.10000000 1 1 1
     0.27970750     0.53199269     0.10000000 1 1 1
     0.30347349     0.55758684     0.10000000 1 1 1
     0.32723949     0.58318099     0.10000000 1 1 1
     0.35100548     0.60877514     0.10000000 1 1 1
     0.37477148     0.63436929     0.10000000 1 1 1
     0.39853748     0.65996344     0.10000000 1 1 1
     0.42230347     0.68555759     0.10000000 1 1 1
     0.44606947     0.71115174     0.10000000 1 1 1
     0.46983547     0.73674589     0.10000000 1 1 1
     0.49360146     0.76234004     0.10000000 1 1 1
     0.51736746     0.78793419     0.10000000 1 1 1
     0.54113346     0.81352834     0.10000000 1 1 1
     0.56489945     0.83912249     0.10000000 1 1 1
     0.58866545     0.86471664     0.10000000 1 1 1
     0.61243144     0.89031079     0.10000000 1 1 1
     0.63619744     0.91590494     0.10000000 1 1 1
     0.65996344     0.94149909     0.10000000 1 1 1
     0.68372943     0.96709324     0.10000000 1 1 1
     0.70749543     0.99268739     0.10000000 1 1 1
     0.02010969     0.17550274     0.10000000 1 1 1
     0.04387569     0.20109689     0.10000000 1 1 1
     0.06764168     0.22669104     0.10000000 1 1 1
     0.09140768     0.25228519     0.10000000 1 1 1
     0.11517367     0.27787934     0.10000000 1 1 1
     0.13893967     0.30347349     0.10000000 1 1 1
     0.16270567     0.32906764     0.10000000 1 1 1
     0.18647166     0.35466179     0.10000000 1 1 1
     0.21023766     0.38025594     0.10000000 1 1 1
     0.23400366     0.40585009     0.10000000 1 1 1
     0.25776965     0.43144424     0.10000000 1 1 1
     0.28153565     0.45703839     0.10000000 1 1 1
     0.30530165     0.48263254     0.10000000 1 1 1
     0.32906764     0.50822669     0.10000000 1 1 1
     0.35283364     0.53382084     0.10000000 1 1 1
     0.37659963     0.55941499     0.10000000 1 1 1
     0.40036563     0.58500914     0.10000000 1 1 1
     0.42413163     0.61060329     0.10000000 1 1 1
     0.44789762     0.63619744     0.10000000 1 1 1
     0.47166362     0.66179159     0.10000000 1 1 1
     0.49542962     0.68738574     0.10000000 1 1 1
     0.51919561     0.71297989     0.10000000 1 1 1
     0.54296161     0.73857404     0.10000000 1 1 1
     0.56672761     0.76416819     0.10000000 1 1 1
     0.59049360     0.78976234     0.10000000 1 1 1
     0.61425960     0.81535649     0.10000000 1 1 1
     0.63802559     0.84095064     0.10000000 1 1 1
     0.66179159     0.86654479     0.10000000 1 1 1
     0.68555759     0.89213894     0.10000000 1 1 1
     0.70932358     0.91773309     0.10000000 1 1 1
     0.73308958     0.94332724     0.10000000 1 1 1
     0.75685558     0.96892139     0.10000000 1 1 1
     0.78062157     0.99451554     0.10000000 1 1 1
     0.02193784     0.10054845     0.10000000 1 1 1
     0.04570384     0.12614260     0.10000000 1 1 1
     0.06946984     0.15173675     0.10000000 1 1 1
     0.09323583     0.17733090     0.10000000 1 1 1
     0.11700183     0.20292505     0.10000000 1 1 1
     0.14076782     0.22851920     0.10000000 1 1 1
     0.16453382     0.25411335     0.10000000 1 1 1
     0.18829982     0.27970750     0.10000000 1 1 1
     0.21206581     0.30530165     0.10000000 1 1 1
     0.23583181     0.33089580     0.10000000 1 1 1
     0.25959781     0.35648995     0.10000000 1 1 1
     0.28336380     0.38208410     0.10000000 1 1 1
     0.30712980     0.40767824     0.10000000 1 1 1
     0.33089580     0.43327239     0.10000000 1 1 1
     0.35466179     0.45886654     0.10000000 1 1 1
     0.37842779     0.48446069     0.10000000 1 1 1
     0.40219378     0.51005484     0.10000000 1 1 1
     0.42595978     0.53564899     0.10000000 1 1 1
     0.44972578     0.56124314     0.10000000 1 1 1
     0.47349177     0.58683729     0.10000000 1 1 1
     0.49725777     0.61243144     0.10000000 1 1 1
     0.52102377     0.63802559     0.10000000 1 1 1
     0.54478976     0.66361974     0.10000000 1 1 1
     0.56855576     0.68921389     0.10000000 1 1 1
     0.59232176     0.71480804     0.10000000 1 1 1
     0.61608775     0.74040219     0.10000000 1 1 1
     0.63985375     0.76599634     0.10000000 1 1 1
     0.66361974     0.79159049     0.10000000 1 1 1
     0.68738574     0.81718464     0.10000000 1 1 1
     0.71115174     0.84277879     0.10000000 1 1 1
     0.73491773     0.86837294     0.10000000 1 1 1
     0.75868373     0.89396709     0.10000000 1 1 1
     0.78244973     0.91956124     0.10000000 1 1 1
     0.80621572     0.94515539     0.10000000 1 1 1
     0.82998172     0.97074954     0.10000000 1 1 1
     0.85374771     0.99634369     0.10000000 1 1 1
     0.00000000     0.00000000     0.10000000 1 1 1
     0.02376600     0.02559415     0.10000000 1 1 1
     0.04753199     0.05118830     0.10000000 1 1 1
     0.07129799     0.07678245     0.10000000 1 1 1
     0.09506399     0.10237660     0.10000000 1 1 1
     0.11882998     0.12797075     0.10000000 1 1 1
     0.14259598     0.15356490     0.10000000 1 1 1
     0.16636197     0.17915905     0.10000000 1 1 1
     0.19012797     0.20475320     0.10000000 1 1 1
     0.21389397     0.23034735     0.10000000 1 1 1
     0.23765996     0.25594150     0.10000000 1 1 1
     0.26142596     0.28153565     0.10000000 1 1 1
     0.28519196     0.30712980     0.10000000 1 1 1
     0.30895795     0.33272395     0.10000000 1 1 1
     0.33272395     0.35831810     0.10000000 1 1 1
     0.35648995     0.38391225     0.10000000 1 1 1
     0.38025594     0.40950640     0.10000000 1 1 1
     0.40402194     0.43510055     0.10000000 1 1 1
     0.42778793     0.46069470     0.10000000 1 1 1
     0.45155393     0.48628885     0.10000000 1 1 1
     0.47531993     0.51188300     0.10000000 1 1 1
     0.49908592     0.53747715     0.10000000 1 1 1
     0.52285192     0.56307130     0.10000000 1 1 1
     0.54661792     0.58866545     0.10000000 1 1 1
     0.57038391     0.61425960     0.10000000 1 1 1
     0.59414991     0.63985375     0.10000000 1 1 1
     0.61791590     0.66544790     0.10000000 1 1 1
     0.64168190     0.69104205     0.10000000 1 1 1
     0.66544790     0.71663620     0.10000000 1 1 1
     0.68921389     0.74223035     0.10000000 1 1 1
     0.71297989     0.76782450     0.10000000 1 1 1
     0.73674589     0.79341865     0.10000000 1 1 1
     0.76051188     0.81901280     0.10000000 1 1 1
     0.78427788     0.84460695     0.10000000 1 1 1
     0.80804388     0.87020110     0.10000000 1 1 1
     0.83180987     0.89579525     0.10000000 1 1 1
     0.85557587     0.92138940     0.10000000 1 1 1
     0.87934186     0.94698355     0.10000000 1 1 1
     0.90310786     0.97257770     0.10000000 1 1 1
     0.92687386     0.99817185     0.10000000 1 1 1
     0.07312614     0.00182815     0.10000000 1 1 1
     0.09689214     0.02742230     0.10000000 1 1 1
     0.12065814     0.05301645     0.10000000 1 1 1
     0.14442413     0.07861060     0.10000000 1 1 1
     0.16819013     0.10420475     0.10000000 1 1 1
     0.19195612     0.12979890     0.10000000 1 1 1
     0.21572212     0.15539305     0.10000000 1 1 1
     0.23948812     0.18098720     0.10000000 1 1 1
     0.26325411     0.20658135     0.10000000 1 1 1
     0.28702011     0.23217550     0.10000000 1 1 1
     0.31078611     0.25776965     0.10000000 1 1 1
     0.33455210     0.28336380     0.10000000 1 1 1
     0.35831810     0.30895795     0.10000000 1 1 1
     0.38208410     0.33455210     0.10000000 1 1 1
     0.40585009     0.36014625     0.10000000 1 1 1
     0.42961609     0.38574040     0.10000000 1 1 1
     0.45338208     0.41133455     0.10000000 1 1 1
     0.47714808     0.43692870     0.10000000 1 1 1
     0.50091408     0.46252285     0.10000000 1 1 1
     0.52468007     0.48811700     0.10000000 1 1 1
     0.54844607     0.51371115     0.10000000 1 1 1
     0.57221207     0.53930530     0.10000000 1 1 1
     0.59597806     0.56489945     0.10000000 1 1 1
     0.61974406     0.59049360     0.10000000 1 1 1
     0.64351005     0.61608775     0.10000000 1 1 1
     0.66727605     0.64168190     0.10000000 1 1 1
     0.69104205     0.66727605     0.10000000 1 1 1
     0.71480804     0.69287020     0.10000000 1 1 1
     0.73857404     0.71846435     0.10000000 1 1 1
     0.76234004     0.74405850     0.10000000 1 1 1
     0.78610603     0.76965265     0.10000000 1 1 1
     0.80987203     0.79524680     0.10000000 1 1 1
     0.83363803     0.82084095     0.10000000 1 1 1
     0.85740402     0.84643510     0.10000000 1 1 1
     0.88117002     0.87202925     0.10000000 1 1 1
     0.90493601     0.89762340     0.10000000 1 1 1
     0.92870201     0.92321755     0.10000000 1 1 1
     0.95246801     0.94881170     0.10000000 1 1 1
     0.97623400     0.97440585     0.10000000 1 1 1
     0.14625229     0.00365631     0.10000000 1 1 1
     0.17001828     0.02925046     0.10000000 1 1 1
     0.19378428     0.05484461     0.10000000 1 1 1
     0.21755027     0.08043876     0.10000000 1 1 1
     0.24131627     0.10603291     0.10000000 1 1 1
     0.26508227     0.13162706     0.10000000 1 1 1
     0.28884826     0.15722121     0.10000000 1 1 1
     0.31261426     0.18281536     0.10000000 1 1 1
     0.33638026     0.20840951     0.10000000 1 1 1
     0.36014625     0.23400366     0.10000000 1 1 1
     0.38391225     0.25959781     0.10000000 1 1 1
     0.40767824     0.28519196     0.10000000 1 1 1
     0.43144424     0.31078611     0.10000000 1 1 1
     0.45521024     0.33638026     0.10000000 1 1 1
     0.47897623     0.36197441     0.10000000 1 1 1
     0.50274223     0.38756856     0.10000000 1 1 1
     0.52650823     0.41316271     0.10000000 1 1 1
     0.55027422     0.43875686     0.10000000 1 1 1
     0.57404022     0.46435101     0.10000000 1 1 1
     0.59780622     0.48994516     0.10000000 1 1 1
     0.62157221     0.51553931     0.10000000 1 1 1
     0.64533821     0.54113346     0.10000000 1 1 1
     0.66910420     0.56672761     0.10000000 1 1 1
     0.69287020     0.59232176     0.10000000 1 1 1
     0.71663620     0.61791590     0.10000000 1 1 1
     0.74040219     0.64351005     0.10000000 1 1 1
     0.76416819     0.66910420     0.10000000 1 1 1
     0.78793419     0.69469835     0.10000000 1 1 1
     0.81170018     0.72029250     0.10000000 1 1 1
     0.83546618     0.74588665     0.10000000 1 1 1
     0.85923218     0.77148080     0.10000000 1 1 1
     0.88299817     0.79707495     0.10000000 1 1 1
     0.90676417     0.82266910     0.10000000 1 1 1
     0.93053016     0.84826325     0.10000000 1 1 1
     0.95429616     0.87385740     0.10000000 1 1 1
     0.97806216     0.89945155     0.10000000 1 1 1
     0.21937843     0.00548446     0.10000000 1 1 1
     0.24314442     0.03107861     0.10000000 1 1 1
     0.26691042     0.05667276     0.10000000 1 1 1
     0.29067642     0.08226691     0.10000000 1 1 1
     0.31444241     0.10786106     0.10000000 1 1 1
     0.33820841     0.13345521     0.10000000 1 1 1
     0.36197441     0.15904936     0.10000000 1 1 1
     0.38574040     0.18464351     0.10000000 1 1 1
     0.40950640     0.21023766     0.10000000 1 1 1
     0.43327239     0.23583181     0.10000000 1 1 1
     0.45703839     0.26142596     0.10000000 1 1 1
     0.48080439     0.28702011     0.10000000 1 1 1
     0.50457038     0.31261426     0.10000000 1 1 1
     0.52833638     0.33820841     0.10000000 1 1 1
     0.55210238     0.36380256     0.10000000 1 1 1
     0.57586837     0.38939671     0.10000000 1 1 1
     0.59963437     0.41499086     0.10000000 1 1 1
     0.62340037     0.44058501     0.10000000 1 1 1
     0.64716636     0.46617916     0.10000000 1 1 1
     0.67093236     0.49177331     0.10000000 1 1 1
     0.69469835     0.51736746     0.10000000 1 1 1
     0.71846435     0.54296161     0.10000000 1 1 1
     0.74223035     0.56855576     0.10000000 1 1 1
     0.76599634     0.59414991     0.10000000 1 1 1
     0.78976234     0.61974406     0.10000000 1 1 1
     0.81352834     0.64533821     0.10000000 1 1 1
     0.83729433     0.67093236     0.10000000 1 1 1
     0.86106033     0.69652651     0.10000000 1 1 1
     0.88482633     0.72212066     0.10000000 1 1 1
     0.90859232     0.74771481     0.10000000 1 1 1
     0.93235832     0.77330896     0.10000000 1 1 1
     0.95612431     0.79890311     0.10000000 1 1 1
     0.97989031     0.82449726     0.10000000 1 1 1
     0.29250457     0.00731261     0.10000000 1 1 1
     0.31627057     0.03290676     0.10000000 1 1 1
     0.34003656     0.05850091     0.10000000 1 1 1
     0.36380256     0.08409506     0.10000000 1 1 1
     0.38756856     0.10968921     0.10000000 1 1 1
     0.41133455     0.13528336     0.10000000 1 1 1
     0.43510055     0.16087751     0.10000000 1 1 1
     0.45886654     0.18647166     0.10000000 1 1 1
     0.48263254     0.21206581     0.10000000 1 1 1
     0.50639854     0.23765996     0.10000000 1 1 1
     0.53016453     0.26325411     0.10000000 1 1 1
     0.55393053     0.28884826     0.10000000 1 1 1
     0.57769653     0.31444241     0.10000000 1 1 1
     0.60146252     0.34003656     0.10000000 1 1 1
     0.62522852     0.36563071     0.10000000 1 1 1
     0.64899452     0.39122486     0.10000000 1 1 1
     0.67276051     0.41681901     0.10000000 1 1 1
     0.69652651     0.44241316     0.10000000 1 1 1
     0.72029250     0.46800731     0.10000000 1 1 1
     0.74405850     0.49360146     0.10000000 1 1 1
     0.76782450     0.51919561     0.10000000 1 1 1
     0.79159049     0.54478976     0.10000000 1 1 1
     0.81535649     0.57038391     0.10000000 1 1 1
     0.83912249     0.59597806     0.10000000 1 1 1
     0.86288848     0.62157221     0.10000000 1 1 1
     0.88665448     0.64716636     0.10000000 1 1 1
     0.91042048     0.67276051     0.10000000 1 1 1
     0.93418647     0.69835466     0.10000000 1 1 1
     0.95795247     0.72394881     0.10000000 1 1 1
     0.98171846     0.74954296     0.10000000 1 1 1
     0.36563071     0.00914077     0.10000000 1 1 1
     0.38939671     0.03473492     0.10000000 1 1 1
     0.41316271     0.06032907     0.10000000 1 1 1
     0.43692870     0.08592322     0.10000000 1 1 1
     0.46069470     0.11151737     0.10000000 1 1 1
     0.48446069     0.13711152     0.10000000 1 1 1
     0.50822669     0.16270567     0.10000000 1 1 1
     0.53199269     0.18829982     0.10000000 1 1 1
     0.55575868     0.21389397     0.10000000 1 1 1
     0.57952468     0.23948812     0.10000000 1 1 1
     0.60329068     0.26508227     0.10000000 1 1 1
     0.62705667     0.29067642     0.10000000 1 1 1
     0.65082267     0.31627057     0.10000000 1 1 1
     0.67458867     0.34186472     0.10000000 1 1 1
     0.69835466     0.36745887     0.10000000 1 1 1
     0.72212066     0.39305302     0.10000000 1 1 1
     0.74588665     0.41864717     0.10000000 1 1 1
     0.76965265     0.44424132     0.10000000 1 1 1
     0.79341865     0.46983547     0.10000000 1 1 1
     0.81718464     0.49542962     0.10000000 1 1 1
     0.84095064     0.52102377     0.10000000 1 1 1
     0.86471664     0.54661792     0.10000000 1 1 1
     0.88848263     0.57221207     0.10000000 1 1 1
     0.91224863     0.59780622     0.10000000 1 1 1
     0.93601463     0.62340037     0.10000000 1 1 1
     0.95978062     0.64899452     0.10000000 1 1 1
     0.98354662     0.67458867     0.10000000 1 1 1
     0.43875686     0.01096892     0.10000000 1 1 1
     0.46252285     0.03656307     0.10000000 1 1 1
     0.48628885     0.06215722     0.10000000 1 1 1
     0.51005484     0.08775137     0.10000000 1 1 1
     0.53382084     0.11334552     0.10000000 1 1 1
     0.55758684     0.13893967     0.10000000 1 1 1
     0.58135283     0.16453382     0.10000000 1 1 1
     0.60511883     0.19012797     0.10000000 1 1 1
     0.62888483     0.21572212     0.10000000 1 1 1
     0.65265082     0.24131627     0.10000000 1 1 1
     0.67641682     0.26691042     0.10000000 1 1 1
     0.70018282     0.29250457     0.10000000 1 1 1
     0.72394881     0.31809872     0.10000000 1 1 1
     0.74771481     0.34369287     0.10000000 1 1 1
     0.77148080     0.36928702     0.10000000 1 1 1
     0.79524680     0.39488117     0.10000000 1 1 1
     0.81901280     0.42047532     0.10000000 1 1 1
     0.84277879     0.44606947     0.10000000 1 1 1
     0.86654479     0.47166362     0.10000000 1 1 1
     0.89031079     0.49725777     0.10000000 1 1 1
     0.91407678     0.52285192     0.10000000 1 1 1
     0.93784278     0.54844607     0.10000000 1 1 1
     0.96160878     0.57404022     0.10000000 1 1 1
     0.98537477     0.59963437     0.10000000 1 1 1
     0.51188300     0.01279707     0.10000000 1 1 1
     0.53564899     0.03839122     0.10000000 1 1 1
     0.55941499     0.06398537     0.10000000 1 1 1
     0.58318099     0.08957952     0.10000000 1 1 1
     0.60694698     0.11517367     0.10000000 1 1 1
     0.63071298     0.14076782     0.10000000 1 1 1
     0.65447898     0.16636197     0.10000000 1 1 1
     0.67824497     0.19195612     0.10000000 1 1 1
     0.70201097     0.21755027     0.10000000 1 1 1
     0.72577697     0.24314442     0.10000000 1 1 1
     0.74954296     0.26873857     0.10000000 1 1 1
     0.77330896     0.29433272     0.10000000 1 1 1
     0.79707495     0.31992687     0.10000000 1 1 1
     0.82084095     0.34552102     0.10000000 1 1 1
     0.84460695     0.37111517     0.10000000 1 1 1
     0.86837294     0.39670932     0.10000000 1 1 1
     0.89213894     0.42230347     0.10000000 1 1 1
     0.91590494     0.44789762     0.10000000 1 1 1
     0.93967093     0.47349177     0.10000000 1 1 1
     0.96343693     0.49908592     0.10000000 1 1 1
     0.98720293     0.52468007     0.10000000 1 1 1
     0.58500914     0.01462523     0.10000000 1 1 1
     0.60877514     0.04021938     0.10000000 1 1 1
     0.63254113     0.06581353     0.10000000 1 1 1
     0.65630713     0.09140768     0.10000000 1 1 1
     0.68007313     0.11700183     0.10000000 1 1 1
     0.70383912     0.14259598     0.10000000 1 1 1
     0.72760512     0.16819013     0.10000000 1 1 1
     0.75137112     0.19378428     0.10000000 1 1 1
     0.77513711     0.21937843     0.10000000 1 1 1
     0.79890311     0.24497258     0.10000000 1 1 1
     0.82266910     0.27056673     0.10000000 1 1 1
     0.84643510     0.29616088     0.10000000 1 1 1
     0.87020110     0.32175503     0.10000000 1 1 1
     0.89396709     0.34734918     0.10000000 1 1 1
     0.91773309     0.37294333     0.10000000 1 1 1
     0.94149909     0.39853748     0.10000000 1 1 1
     0.96526508     0.42413163     0.10000000 1 1 1
     0.98903108     0.44972578     0.10000000 1 1 1
     0.65813528     0.01645338     0.10000000 1 1 1
     0.68190128     0.04204753     0.10000000 1 1 1
     0.70566728     0.06764168     0.10000000 1 1 1
     0.72943327     0.09323583     0.10000000 1 1 1
     0.75319927     0.11882998     0.10000000 1 1 1
     0.77696527     0.14442413     0.10000000 1 1 1
     0.80073126     0.17001828     0.10000000 1 1 1
     0.82449726     0.19561243     0.10000000 1 1 1
     0.84826325     0.22120658     0.10000000 1 1 1
     0.87202925     0.24680073     0.10000000 1 1 1
     0.89579525     0.27239488     0.10000000 1 1 1
     0.91956124     0.29798903     0.10000000 1 1 1
     0.94332724     0.32358318     0.10000000 1 1 1
     0.96709324     0.34917733     0.10000000 1 1 1
     0.99085923     0.37477148     0.10000000 1 1 1
     0.73126143     0.01828154     0.10000000 1 1 1
     0.75502742     0.04387569     0.10000000 1 1 1
     0.77879342     0.06946984     0.10000000 1 1 1
     0.80255941     0.09506399     0.10000000 1 1 1
     0.82632541     0.12065814     0.10000000 1 1 1
     0.85009141     0.14625229     0.10000000 1 1 1
     0.87385740     0.17184644     0.10000000 1 1 1
     0.89762340     0.19744059     0.10000000 1 1 1
     0.92138940     0.22303473     0.10000000 1 1 1
     0.94515539     0.24862888     0.10000000 1 1 1
     0.96892139     0.27422303     0.10000000 1 1 1
     0.99268739     0.29981718     0.10000000 1 1 1
     0.80438757     0.02010969     0.10000000 1 1 1
     0.82815356     0.04570384     0.10000000 1 1 1
     0.85191956     0.07129799     0.10000000 1 1 1
     0.87568556     0.09689214     0.10000000 1 1 1
     0.89945155     0.12248629     0.10000000 1 1 1
     0.92321755     0.14808044     0.10000000 1 1 1
     0.94698355     0.17367459     0.10000000 1 1 1
     0.97074954     0.19926874     0.10000000 1 1 1
     0.99451554     0.22486289     0.10000000 1 1 1
     0.87751371     0.02193784     0.10000000 1 1 1
     0.90127971     0.04753199     0.10000000 1 1 1
     0.92504570     0.07312614     0.10000000 1 1 1
     0.94881170     0.09872029     0.10000000 1 1 1
     0.97257770     0.12431444     0.10000000 1 1 1
     0.99634369     0.14990859     0.10000000 1 1 1
     0.95063985     0.02376600     0.10000000 1 1 1
     0.97440585     0.04936015     0.10000000 1 1 1
     0.99817185     0.07495430     0.10000000 1 1 1
     0.05057892     0.92626447     0.10000000 1 1 1
     0.07434491     0.95185862     0.10000000 1 1 1
     0.09811091     0.97745277     0.10000000 1 1 1
     0.05240707     0.85131018     0.10000000 1 1 1
     0.07617307     0.87690433     0.10000000 1 1 1
     0.09993906     0.90249848     0.10000000 1 1 1
     0.12370506     0.92809262     0.10000000 1 1 1
     0.14747105     0.95368677     0.10000000 1 1 1
     0.17123705     0.97928092     0.10000000 1 1 1
     0.05423522     0.77635588     0.10000000 1 1 1
     0.07800122     0.80195003     0.10000000 1 1 1
     0.10176722     0.82754418     0.10000000 1 1 1
     0.12553321     0.85313833     0.10000000 1 1 1
     0.14929921     0.87873248     0.10000000 1 1 1
     0.17306520     0.90432663     0.10000000 1 1 1
     0.19683120     0.92992078     0.10000000 1 1 1
     0.22059720     0.95551493     0.10000000 1 1 1
     0.24436319     0.98110908     0.10000000 1 1 1
     0.05606338     0.70140158     0.10000000 1 1 1
     0.07982937     0.72699573     0.10000000 1 1 1
     0.10359537     0.75258988     0.10000000 1 1 1
     0.12736137     0.77818403     0.10000000 1 1 1
     0.15112736     0.80377818     0.10000000 1 1 1