ATOMIC_SPECIES
C 6.000 /mnt/C_ONCV_PBE-1.0.upf

NUMERICAL_ORBITAL
/mnt/C_gga_8au_100Ry_2s2p1d.orb

LATTICE_CONSTANT
1.889716

LATTICE_VECTORS
       35.66275000       19.16990533       0.00000000
       1.22975000       40.46980013       0.00000000
       0.00000000       0.00000000       30.00000000

ATOMIC_POSITIONS
Direct

C
0.0
1084
     0.00369004     0.89298893     0.10000000 1 1 1
     0.03690037     0.92988930     0.10000000 1 1 1
     0.07011070     0.96678967     0.10000000 1 1 1
     0.00738007     0.78597786     0.10000000 1 1 1
     0.04059041     0.82287823     0.10000000 1 1 1
     0.07380074     0.85977860     0.10000000 1 1 1
     0.10701107     0.89667897     0.10000000 1 1 1
     0.14022140     0.93357934     0.10000000 1 1 1
     0.17343173     0.97047970     0.10000000 1 1 1
     0.01107011     0.67896679     0.10000000 1 1 1
     0.04428044     0.71586716     0.10000000 1 1 1
     0.07749077     0.75276753     0.10000000 1 1 1
     0.11070111     0.78966790     0.10000000 1 1 1
     0.14391144     0.82656827     0.10000000 1 1 1
     0.17712177     0.86346863     0.10000000 1 1 1
     0.21033210     0.90036900     0.10000000 1 1 1
     0.24354244     0.93726937     0.10000000 1 1 1
     0.27675277     0.97416974     0.10000000 1 1 1
     0.01476015     0.57195572     0.10000000 1 1 1
     0.04797048     0.60885609     0.10000000 1 1 1
     0.08118081     0.64575646     0.10000000 1 1 1
     0.11439114     0.68265683     0.10000000 1 1 1
     0.14760148     0.71955720     0.10000000 1 1 1
     0.18081181     0.75645756     0.10000000 1 1 1
     0.21402214     0.79335793     0.10000000 1 1 1
     0.24723247     0.83025830     0.10000000 1 1 1
     0.28044280     0.86715867     0.10000000 1 1 1
     0.31365314     0.90405904     0.10000000 1 1 1
     0.34686347     0.94095941     0.10000000 1 1 1
     0.38007380     0.97785978     0.10000000 1 1 1
     0.01845018     0.46494465     0.10000000 1 1 1
     0.05166052     0.50184502     0.10000000 1 1 1
     0.08487085     0.53874539     0.10000000 1 1 1
     0.11808118     0.57564576     0.10000000 1 1 1
     0.15129151     0.61254613     0.10000000 1 1 1
     0.18450185     0.64944649     0.10000000 1 1 1
     0.21771218     0.68634686     0.10000000 1 1 1
     0.25092251     0.72324723     0.10000000 1 1 1
     0.28413284     0.76014760     0.10000000 1 1 1
     0.31734317     0.79704797     0.10000000 1 1 1
     0.35055351     0.83394834     0.10000000 1 1 1
     0.38376384     0.87084871     0.10000000 1 1 1
     0.41697417     0.90774908     0.10000000 1 1 1
     0.45018450     0.94464945     0.10000000 1 1 1
     0.48339483     0.98154982     0.10000000 1 1 1
     0.02214022     0.35793358     0.10000000 1 1 1
     0.05535055     0.39483395     0.10000000 1 1 1
     0.08856089     0.43173432     0.10000000 1 1 1
     0.12177122     0.46863469     0.10000000 1 1 1
     0.15498155     0.50553506     0.10000000 1 1 1
     0.18819188     0.54243542     0.10000000 1 1 1
     0.22140221     0.57933579     0.10000000 1 1 1
     0.25461255     0.61623616     0.10000000 1 1 1
     0.28782288     0.65313653     0.10000000 1 1 1
     0.32103321     0.69003690     0.10000000 1 1 1
     0.35424354     0.72693727     0.10000000 1 1 1
     0.38745387     0.76383764     0.10000000 1 1 1
     0.42066421     0.80073801     0.10000000 1 1 1
     0.45387454     0.83763838     0.10000000 1 1 1
     0.48708487     0.87453875     0.10000000 1 1 1
     0.52029520     0.91143911     0.10000000 1 1 1
     0.55350554     0.94833948     0.10000000 1 1 1
     0.58671587     0.98523985     0.10000000 1 1 1
     0.02583026     0.25092251     0.10000000 1 1 1
     0.05904059     0.28782288     0.10000000 1 1 1
     0.09225092     0.32472325     0.10000000 1 1 1
     0.12546125     0.36162362     0.10000000 1 1 1
     0.15867159     0.39852399     0.10000000 1 1 1
     0.19188192     0.43542435     0.10000000 1 1 1
     0.22509225     0.47232472     0.10000000 1 1 1
     0.25830258     0.50922509     0.10000000 1 1 1
     0.29151292     0.54612546     0.10000000 1 1 1
     0.32472325     0.58302583     0.10000000 1 1 1
     0.35793358     0.61992620     0.10000000 1 1 1
     0.39114391     0.65682657     0.10000000 1 1 1
     0.42435424     0.69372694     0.10000000 1 1 1
     0.45756458     0.73062731     0.10000000 1 1 1
     0.49077491     0.76752768     0.10000000 1 1 1
     0.52398524     0.80442804     0.10000000 1 1 1
     0.55719557     0.84132841     0.10000000 1 1 1
     0.59040590     0.87822878     0.10000000 1 1 1
     0.62361624     0.91512915     0.10000000 1 1 1
     0.65682657     0.95202952     0.10000000 1 1 1
     0.69003690     0.98892989     0.10000000 1 1 1
     0.02952030     0.14391144     0.10000000 1 1 1
     0.06273063     0.18081181     0.10000000 1 1 1
     0.09594096     0.21771218     0.10000000 1 1 1
     0.12915129     0.25461255     0.10000000 1 1 1
     0.16236162     0.29151292     0.10000000 1 1 1
     0.19557196     0.32841328     0.10000000 1 1 1
     0.22878229     0.36531365     0.10000000 1 1 1
     0.26199262     0.40221402     0.10000000 1 1 1
     0.29520295     0.43911439     0.10000000 1 1 1
     0.32841328     0.47601476     0.10000000 1 1 1
     0.36162362     0.51291513     0.10000000 1 1 1
     0.39483395     0.54981550     0.10000000 1 1 1
     0.42804428     0.58671587     0.10000000 1 1 1
     0.46125461     0.62361624     0.10000000 1 1 1
     0.49446494     0.66051661     0.10000000 1 1 1
     0.52767528     0.69741697     0.10000000 1 1 1
     0.56088561     0.73431734     0.10000000 1 1 1
     0.59409594     0.77121771     0.10000000 1 1 1
     0.62730627     0.80811808     0.10000000 1 1 1
     0.66051661     0.84501845     0.10000000 1 1 1
     0.69372694     0.88191882     0.10000000 1 1 1
     0.72693727     0.91881919     0.10000000 1 1 1
     0.76014760     0.95571956     0.10000000 1 1 1
     0.79335793     0.99261993     0.10000000 1 1 1
     0.00000000     0.00000000     0.10000000 1 1 1
     0.03321033     0.03690037     0.10000000 1 1 1
     0.06642066     0.07380074     0.10000000 1 1 1
     0.09963100     0.11070111     0.10000000 1 1 1
     0.13284133     0.14760148     0.10000000 1 1 1
     0.16605166     0.18450185     0.10000000 1 1 1
     0.19926199     0.22140221     0.10000000 1 1 1
     0.23247232     0.25830258     0.10000000 1 1 1
     0.26568266     0.29520295     0.10000000 1 1 1
     0.29889299     0.33210332     0.10000000 1 1 1
     0.33210332     0.36900369     0.10000000 1 1 1
     0.36531365     0.40590406     0.10000000 1 1 1
     0.39852399     0.44280443     0.10000000 1 1 1
     0.43173432     0.47970480     0.10000000 1 1 1
     0.46494465     0.51660517     0.10000000 1 1 1
     0.49815498     0.55350554     0.10000000 1 1 1
     0.53136531     0.59040590     0.10000000 1 1 1
     0.56457565     0.62730627     0.10000000 1 1 1
     0.59778598     0.66420664     0.10000000 1 1 1
     0.63099631     0.70110701     0.10000000 1 1 1
     0.66420664     0.73800738     0.10000000 1 1 1
     0.69741697     0.77490775     0.10000000 1 1 1
     0.73062731     0.81180812     0.10000000 1 1 1
     0.76383764     0.84870849     0.10000000 1 1 1
     0.79704797     0.88560886     0.10000000 1 1 1
     0.83025830     0.92250923     0.10000000 1 1 1
     0.86346863     0.95940959     0.10000000 1 1 1
     0.89667897     0.99630996     0.10000000 1 1 1
     0.10332103     0.00369004     0.10000000 1 1 1
     0.13653137     0.04059041     0.10000000 1 1 1
     0.16974170     0.07749077     0.10000000 1 1 1
     0.20295203     0.11439114     0.10000000 1 1 1
     0.23616236     0.15129151     0.10000000 1 1 1
     0.26937269     0.18819188     0.10000000 1 1 1
     0.30258303     0.22509225     0.10000000 1 1 1
     0.33579336     0.26199262     0.10000000 1 1 1
     0.36900369     0.29889299     0.10000000 1 1 1
     0.40221402     0.33579336     0.10000000 1 1 1
     0.43542435     0.37269373     0.10000000 1 1 1
     0.46863469     0.40959410     0.10000000 1 1 1
     0.50184502     0.44649446     0.10000000 1 1 1
     0.53505535     0.48339483     0.10000000 1 1 1
     0.56826568     0.52029520     0.10000000 1 1 1
     0.60147601     0.55719557     0.10000000 1 1 1
     0.63468635     0.59409594     0.10000000 1 1 1
     0.66789668     0.63099631     0.10000000 1 1 1
     0.70110701     0.66789668     0.10000000 1 1 1
     0.73431734     0.70479705     0.10000000 1 1 1
     0.76752768     0.74169742     0.10000000 1 1 1
     0.80073801     0.77859779     0.10000000 1 1 1
     0.83394834     0.81549815     0.10000000 1 1 1
     0.86715867     0.85239852     0.10000000 1 1 1
     0.90036900     0.88929889     0.10000000 1 1 1
     0.93357934     0.92619926     0.10000000 1 1 1
     0.96678967     0.96309963     0.10000000 1 1 1
     0.20664207     0.00738007     0.10000000 1 1 1
     0.23985240     0.04428044     0.10000000 1 1 1
     0.27306273     0.08118081     0.10000000 1 1 1
     0.30627306     0.11808118     0.10000000 1 1 1
     0.33948339     0.15498155     0.10000000 1 1 1
     0.37269373     0.19188192     0.10000000 1 1 1
     0.40590406     0.22878229     0.10000000 1 1 1
     0.43911439     0.26568266     0.10000000 1 1 1
     0.47232472     0.30258303     0.10000000 1 1 1
     0.50553506     0.33948339     0.10000000 1 1 1
     0.53874539     0.37638376     0.10000000 1 1 1
     0.57195572     0.41328413     0.10000000 1 1 1
     0.60516605     0.45018450     0.10000000 1 1 1
     0.63837638     0.48708487     0.10000000 1 1 1
     0.67158672     0.52398524     0.10000000 1 1 1
     0.70479705     0.56088561     0.10000000 1 1 1
     0.73800738     0.59778598     0.10000000 1 1 1
     0.77121771     0.63468635     0.10000000 1 1 1
     0.80442804     0.67158672     0.10000000 1 1 1
     0.83763838     0.70848708     0.10000000 1 1 1
     0.87084871     0.74538745     0.10000000 1 1 1
     0.90405904     0.78228782     0.10000000 1 1 1
     0.93726937     0.81918819     0.10000000 1 1 1
     0.97047970     0.85608856     0.10000000 1 1 1
     0.30996310     0.01107011     0.10000000 1 1 1
     0.34317343     0.04797048     0.10000000 1 1 1
     0.37638376     0.08487085     0.10000000 1 1 1
     0.40959410     0.12177122     0.10000000 1 1 1
     0.44280443     0.15867159     0.10000000 1 1 1
     0.47601476     0.19557196     0.10000000 1 1 1
     0.50922509     0.23247232     0.10000000 1 1 1
     0.54243542     0.26937269     0.10000000 1 1 1
     0.57564576     0.30627306     0.10000000 1 1 1
     0.60885609     0.34317343     0.10000000 1 1 1
     0.64206642     0.38007380     0.10000000 1 1 1
     0.67527675     0.41697417     0.10000000 1 1 1
     0.70848708     0.45387454     0.10000000 1 1 1
     0.74169742     0.49077491     0.10000000 1 1 1
     0.77490775     0.52767528     0.10000000 1 1 1
     0.80811808     0.56457565     0.10000000 1 1 1
     0.84132841     0.60147601     0.10000000 1 1 1
     0.87453875     0.63837638     0.10000000 1 1 1
     0.90774908     0.67527675     0.10000000 1 1 1
     0.94095941     0.71217712     0.10000000 1 1 1
     0.97416974     0.74907749     0.10000000 1 1 1
     0.41328413     0.01476015     0.10000000 1 1 1
     0.44649446     0.05166052     0.10000000 1 1 1
     0.47970480     0.08856089     0.10000000 1 1 1
     0.51291513     0.12546125     0.10000000 1 1 1
     0.54612546     0.16236162     0.10000000 1 1 1
     0.57933579     0.19926199     0.10000000 1 1 1
     0.61254613     0.23616236     0.10000000 1 1 1
     0.64575646     0.27306273     0.10000000 1 1 1
     0.67896679     0.30996310     0.10000000 1 1 1
     0.71217712     0.34686347     0.10000000 1 1 1
     0.74538745     0.38376384     0.10000000 1 1 1
     0.77859779     0.42066421     0.10000000 1 1 1
     0.81180812     0.45756458     0.10000000 1 1 1
     0.84501845     0.49446494     0.10000000 1 1 1
     0.87822878     0.53136531     0.10000000 1 1 1
     0.91143911     0.56826568     0.10000000 1 1 1
     0.94464945     0.60516605     0.10000000 1 1 1
     0.97785978     0.64206642     0.10000000 1 1 1
     0.51660517     0.01845018     0.10000000 1 1 1
     0.54981550     0.05535055     0.10000000 1 1 1
     0.58302583     0.09225092     0.10000000 1 1 1
     0.61623616     0.12915129     0.10000000 1 1 1
     0.64944649     0.16605166     0.10000000 1 1 1
     0.68265683     0.20295203     0.10000000 1 1 1
     0.71586716     0.23985240     0.10000000 1 1 1
     0.74907749     0.27675277     0.10000000 1 1 1
     0.78228782     0.31365314     0.10000000 1 1 1
     0.81549815     0.35055351     0.10000000 1 1 1
     0.84870849     0.38745387     0.10000000 1 1 1
     0.88191882     0.42435424     0.10000000 1 1 1
     0.91512915     0.46125461     0.10000000 1 1 1
     0.94833948     0.49815498     0.10000000 1 1 1
     0.98154982     0.53505535     0.10000000 1 1 1
     0.61992620     0.02214022     0.10000000 1 1 1
     0.65313653     0.05904059     0.10000000 1 1 1
     0.68634686     0.09594096     0.10000000 1 1 1
     0.71955720     0.13284133     0.10000000 1 1 1
     0.75276753     0.16974170     0.10000000 1 1 1
     0.78597786     0.20664207     0.10000000 1 1 1
     0.81918819     0.24354244     0.10000000 1 1 1
     0.85239852     0.28044280     0.10000000 1 1 1
     0.88560886     0.31734317     0.10000000 1 1 1
     0.91881919     0.35424354     0.10000000 1 1 1
     0.95202952     0.39114391     0.10000000 1 1 1
     0.98523985     0.42804428     0.10000000 1 1 1
     0.72324723     0.02583026     0.10000000 1 1 1
     0.75645756     0.06273063     0.10000000 1 1 1
     0.78966790     0.09963100     0.10000000 1 1 1
     0.82287823     0.13653137     0.10000000 1 1 1
     0.85608856     0.17343173     0.10000000 1 1 1
     0.88929889     0.21033210     0.10000000 1 1 1
     0.92250923     0.24723247     0.10000000 1 1 1
     0.95571956     0.28413284     0.10000000 1 1 1
     0.98892989     0.32103321     0.10000000 1 1 1
     0.82656827     0.02952030     0.10000000 1 1 1
     0.85977860     0.06642066     0.10000000 1 1 1
     0.89298893     0.10332103     0.10000000 1 1 1
     0.92619926     0.14022140     0.10000000 1 1 1
     0.95940959     0.17712177     0.10000000 1 1 1
     0.99261993     0.21402214     0.10000000 1 1 1
     0.92988930     0.03321033     0.10000000 1 1 1
     0.96309963     0.07011070     0.10000000 1 1 1
     0.99630996     0.10701107     0.10000000 1 1 1
     0.07257073     0.89544895     0.10000000 1 1 1
     0.10578106     0.93234932     0.10000000 1 1 1
     0.13899139     0.96924969     0.10000000 1 1 1
     0.07626076     0.78843788     0.10000000 1 1 1
     0.10947109     0.82533825     0.10000000 1 1 1
     0.14268143     0.86223862     0.10000000 1 1 1
     0.17589176     0.89913899     0.10000000 1 1 1
     0.20910209     0.93603936     0.10000000 1 1 1
     0.24231242     0.97293973     0.10000000 1 1 1
     0.07995080     0.68142681     0.10000000 1 1 1
     0.11316113     0.71832718     0.10000000 1 1 1
     0.14637146     0.75522755     0.10000000 1 1 1
     0.17958180     0.79212792     0.10000000 1 1 1
     0.21279213     0.82902829     0.10000000 1 1 1
     0.24600246     0.86592866     0.10000000 1 1 1
     0.27921279     0.90282903     0.10000000 1 1 1
     0.31242312     0.93972940     0.10000000 1 1 1
     0.34563346     0.97662976     0.10000000 1 1 1
     0.08364084     0.57441574     0.10000000 1 1 1
     0.11685117     0.61131611     0.10000000 1 1 1
     0.15006150     0.64821648     0.10000000 1 1 1
     0.18327183     0.68511685     0.10000000 1 1 1
     0.21648216     0.72201722     0.10000000 1 1 1
     0.24969250     0.75891759     0.10000000 1 1 1
     0.28290283     0.79581796     0.10000000 1 1 1
     0.31611316     0.83271833     0.10000000 1 1 1
     0.34932349     0.86961869     0.10000000 1 1 1
     0.38253383     0.90651906     0.10000000 1 1 1
     0.41574416     0.94341943     0.10000000 1 1 1
     0.44895449     0.98031980     0.10000000 1 1 1
     0.08733087     0.46740467     0.10000000 1 1 1
     0.12054121     0.50430504     0.10000000 1 1 1
     0.15375154     0.54120541     0.10000000 1 1 1
     0.18696187     0.57810578     0.10000000 1 1 1
     0.22017220     0.61500615     0.10000000 1 1 1
     0.25338253     0.65190652     0.10000000 1 1 1
     0.28659287     0.68880689     0.10000000 1 1 1
     0.31980320     0.72570725     0.10000000 1 1 1
     0.35301353     0.76260762     0.10000000 1 1 1
     0.38622386     0.79950799     0.10000000 1 1 1
     0.41943419     0.83640836     0.10000000 1 1 1
     0.45264453     0.87330873     0.10000000 1 1 1
     0.48585486     0.91020910     0.10000000 1 1 1
     0.51906519     0.94710947     0.10000000 1 1 1
     0.55227552     0.98400984     0.10000000 1 1 1
     0.09102091     0.36039360     0.10000000 1 1 1
     0.12423124     0.39729397     0.10000000 1 1 1
     0.15744157     0.43419434     0.10000000 1 1 1
     0.19065191     0.47109471     0.10000000 1 1 1
     0.22386224     0.50799508     0.10000000 1 1 1
     0.25707257     0.54489545     0.10000000 1 1 1
     0.29028290     0.58179582     0.10000000 1 1 1
     0.32349324     0.61869618     0.10000000 1 1 1
     0.35670357     0.65559655     0.10000000 1 1 1
     0.38991390     0.69249692     0.10000000 1 1 1
     0.42312423     0.72939729     0.10000000 1 1 1
     0.45633456     0.76629766     0.10000000 1 1 1
     0.48954490     0.80319803     0.10000000 1 1 1
     0.52275523     0.84009840     0.10000000 1 1 1
     0.55596556     0.87699877     0.10000000 1 1 1
     0.58917589     0.91389914     0.10000000 1 1 1
     0.62238622     0.95079951     0.10000000 1 1 1
     0.65559656     0.98769987     0.10000000 1 1 1
     0.09471095     0.25338253     0.10000000 1 1 1
     0.12792128     0.29028290     0.10000000 1 1 1
     0.16113161     0.32718327     0.10000000 1 1 1
     0.19434194     0.36408364     0.10000000 1 1 1
     0.22755228     0.40098401     0.10000000 1 1 1
     0.26076261     0.43788438     0.10000000 1 1 1
     0.29397294     0.47478475     0.10000000 1 1 1
     0.32718327     0.51168511     0.10000000 1 1 1
     0.36039360     0.54858548     0.10000000 1 1 1
     0.39360394     0.58548585     0.10000000 1 1 1
     0.42681427     0.62238622     0.10000000 1 1 1
     0.46002460     0.65928659     0.10000000 1 1 1
     0.49323493     0.69618696     0.10000000 1 1 1
     0.52644526     0.73308733     0.10000000 1 1 1
     0.55965560     0.76998770     0.10000000 1 1 1
     0.59286593     0.80688807     0.10000000 1 1 1
     0.62607626     0.84378844     0.10000000 1 1 1
     0.65928659     0.88068880     0.10000000 1 1 1
     0.69249693     0.91758917     0.10000000 1 1 1
     0.72570726     0.95448954     0.10000000 1 1 1
     0.75891759     0.99138991     0.10000000 1 1 1
     0.09840098     0.14637146     0.10000000 1 1 1
     0.13161132     0.18327183     0.10000000 1 1 1
     0.16482165     0.22017220     0.10000000 1 1 1
     0.19803198     0.25707257     0.10000000 1 1 1
     0.23124231     0.29397294     0.10000000 1 1 1
     0.26445264     0.33087331     0.10000000 1 1 1
     0.29766298     0.36777368     0.10000000 1 1 1
     0.33087331     0.40467404     0.10000000 1 1 1
     0.36408364     0.44157441     0.10000000 1 1 1
     0.39729397     0.47847478     0.10000000 1 1 1
     0.43050431     0.51537515     0.10000000 1 1 1
     0.46371464     0.55227552     0.10000000 1 1 1
     0.49692497     0.58917589     0.10000000 1 1 1
     0.53013530     0.62607626     0.10000000 1 1 1
     0.56334563     0.66297663     0.10000000 1 1 1
     0.59655597     0.69987700     0.10000000 1 1 1
     0.62976630     0.73677737     0.10000000 1 1 1
     0.66297663     0.77367773     0.10000000 1 1 1
     0.69618696     0.81057810     0.10000000 1 1 1
     0.72939729     0.84747847     0.10000000 1 1 1
     0.76260763     0.88437884     0.10000000 1 1 1
     0.79581796     0.92127921     0.10000000 1 1 1
     0.82902829     0.95817958     0.10000000 1 1 1
     0.86223862     0.99507995     0.10000000 1 1 1
     0.06888069     0.00246002     0.10000000 1 1 1
     0.10209102     0.03936039     0.10000000 1 1 1
     0.13530135     0.07626076     0.10000000 1 1 1
     0.16851169     0.11316113     0.10000000 1 1 1
     0.20172202     0.15006150     0.10000000 1 1 1
     0.23493235     0.18696187     0.10000000 1 1 1
     0.26814268     0.22386224     0.10000000 1 1 1
     0.30135301     0.26076261     0.10000000 1 1 1
     0.33456335     0.29766297     0.10000000 1 1 1
     0.36777368     0.33456334     0.10000000 1 1 1
     0.40098401     0.37146371     0.10000000 1 1 1
     0.43419434     0.40836408     0.10000000 1 1 1
     0.46740467     0.44526445     0.10000000 1 1 1
     0.50061501     0.48216482     0.10000000 1 1 1
     0.53382534     0.51906519     0.10000000 1 1 1
     0.56703567     0.55596556     0.10000000 1 1 1
     0.60024600     0.59286593     0.10000000 1 1 1
     0.63345633     0.62976630     0.10000000 1 1 1
     0.66666667     0.66666666     0.10000000 1 1 1
     0.69987700     0.70356703     0.10000000 1 1 1
     0.73308733     0.74046740     0.10000000 1 1 1
     0.76629766     0.77736777     0.10000000 1 1 1
     0.79950800     0.81426814     0.10000000 1 1 1
     0.83271833     0.85116851     0.10000000 1 1 1
     0.86592866     0.88806888     0.10000000 1 1 1
     0.89913899     0.92496925     0.10000000 1 1 1
     0.93234932     0.96186962     0.10000000 1 1 1
     0.96555966     0.99876999     0.10000000 1 1 1
     0.17220172     0.00615006     0.10000000 1 1 1
     0.20541205     0.04305043     0.10000000 1 1 1
     0.23862239     0.07995080     0.10000000 1 1 1
     0.27183272     0.11685117     0.10000000 1 1 1
     0.30504305     0.15375154     0.10000000 1 1 1
     0.33825338     0.19065190     0.10000000 1 1 1
     0.37146371     0.22755227     0.10000000 1 1 1
     0.40467405     0.26445264     0.10000000 1 1 1
     0.43788438     0.30135301     0.10000000 1 1 1
     0.47109471     0.33825338     0.10000000 1 1 1
     0.50430504     0.37515375     0.10000000 1 1 1
     0.53751538     0.41205412     0.10000000 1 1 1
     0.57072571     0.44895449     0.10000000 1 1 1
     0.60393604     0.48585486     0.10000000 1 1 1
     0.63714637     0.52275523     0.10000000 1 1 1
     0.67035670     0.55965559     0.10000000 1 1 1
     0.70356704     0.59655596     0.10000000 1 1 1
     0.73677737     0.63345633     0.10000000 1 1 1
     0.76998770     0.67035670     0.10000000 1 1 1
     0.80319803     0.70725707     0.10000000 1 1 1
     0.83640836     0.74415744     0.10000000 1 1 1
     0.86961870     0.78105781     0.10000000 1 1 1
     0.90282903     0.81795818     0.10000000 1 1 1
     0.93603936     0.85485855     0.10000000 1 1 1
     0.96924969     0.89175892     0.10000000 1 1 1
     1.00246002     0.92865928     0.10000000 1 1 1
     1.03567036     0.96555965     0.10000000 1 1 1
     0.27552276     0.00984010     0.10000000 1 1 1
     0.30873309     0.04674047     0.10000000 1 1 1
     0.34194342     0.08364083     0.10000000 1 1 1
     0.37515375     0.12054120     0.10000000 1 1 1
     0.40836408     0.15744157     0.10000000 1 1 1
     0.44157442     0.19434194     0.10000000 1 1 1
     0.47478475     0.23124231     0.10000000 1 1 1
     0.50799508     0.26814268     0.10000000 1 1 1
     0.54120541     0.30504305     0.10000000 1 1 1
     0.57441574     0.34194342     0.10000000 1 1 1
     0.60762608     0.37884379     0.10000000 1 1 1
     0.64083641     0.41574416     0.10000000 1 1 1
     0.67404674     0.45264452     0.10000000 1 1 1
     0.70725707     0.48954489     0.10000000 1 1 1
     0.74046740     0.52644526     0.10000000 1 1 1
     0.77367774     0.56334563     0.10000000 1 1 1
     0.80688807     0.60024600     0.10000000 1 1 1
     0.84009840     0.63714637     0.10000000 1 1 1
     0.87330873     0.67404674     0.10000000 1 1 1
     0.90651907     0.71094711     0.10000000 1 1 1
     0.93972940     0.74784748     0.10000000 1 1 1
     0.97293973     0.78474785     0.10000000 1 1 1
     1.00615006     0.82164821     0.10000000 1 1 1
     1.03936039     0.85854858     0.10000000 1 1 1
     0.37884379     0.01353013     0.10000000 1 1 1
     0.41205412     0.05043050     0.10000000 1 1 1
     0.44526445     0.08733087     0.10000000 1 1 1
     0.47847478     0.12423124     0.10000000 1 1 1
     0.51168512     0.16113161     0.10000000 1 1 1
     0.54489545     0.19803198     0.10000000 1 1 1
     0.57810578     0.23493235     0.10000000 1 1 1
     0.61131611     0.27183272     0.10000000 1 1 1
     0.64452645     0.30873309     0.10000000 1 1 1
     0.67773678     0.34563345     0.10000000 1 1 1
     0.71094711     0.38253382     0.10000000 1 1 1
     0.74415744     0.41943419     0.10000000 1 1 1
     0.77736777     0.45633456     0.10000000 1 1 1
     0.81057811     0.49323493     0.10000000 1 1 1
     0.84378844     0.53013530     0.10000000 1 1 1
     0.87699877     0.56703567     0.10000000 1 1 1
     0.91020910     0.60393604     0.10000000 1 1 1
     0.94341943     0.64083641     0.10000000 1 1 1
     0.97662977     0.67773678     0.10000000 1 1 1
     1.00984010     0.71463714     0.10000000 1 1 1
     1.04305043     0.75153751     0.10000000 1 1 1
     0.48216482     0.01722017     0.10000000 1 1 1
     0.51537515     0.05412054     0.10000000 1 1 1
     0.54858549     0.09102091     0.10000000 1 1 1
     0.58179582     0.12792128     0.10000000 1 1 1
     0.61500615     0.16482165     0.10000000 1 1 1
     0.64821648     0.20172202     0.10000000 1 1 1
     0.68142681     0.23862238     0.10000000 1 1 1
     0.71463715     0.27552275     0.10000000 1 1 1
     0.74784748     0.31242312     0.10000000 1 1 1
     0.78105781     0.34932349     0.10000000 1 1 1
     0.81426814     0.38622386     0.10000000 1 1 1
     0.84747847     0.42312423     0.10000000 1 1 1
     0.88068881     0.46002460     0.10000000 1 1 1
     0.91389914     0.49692497     0.10000000 1 1 1
     0.94710947     0.53382534     0.10000000 1 1 1
     0.98031980     0.57072571     0.10000000 1 1 1
     1.01353014     0.60762607     0.10000000 1 1 1
     1.04674047     0.64452644     0.10000000 1 1 1
     0.58548585     0.02091021     0.10000000 1 1 1
     0.61869619     0.05781058     0.10000000 1 1 1
     0.65190652     0.09471094     0.10000000 1 1 1
     0.68511685     0.13161131     0.10000000 1 1 1
     0.71832718     0.16851168     0.10000000 1 1 1
     0.75153752     0.20541205     0.10000000 1 1 1
     0.78474785     0.24231242     0.10000000 1 1 1
     0.81795818     0.27921279     0.10000000 1 1 1
     0.85116851     0.31611316     0.10000000 1 1 1
     0.88437884     0.35301353     0.10000000 1 1 1
     0.91758918     0.38991390     0.10000000 1 1 1
     0.95079951     0.42681427     0.10000000 1 1 1
     0.98400984     0.46371464     0.10000000 1 1 1
     1.01722017     0.50061500     0.10000000 1 1 1
     1.05043050     0.53751537     0.10000000 1 1 1
     0.68880689     0.02460024     0.10000000 1 1 1
     0.72201722     0.06150061     0.10000000 1 1 1
     0.75522755     0.09840098     0.10000000 1 1 1
     0.78843788     0.13530135     0.10000000 1 1 1
     0.82164822     0.17220172     0.10000000 1 1 1
     0.85485855     0.20910209     0.10000000 1 1 1
     0.88806888     0.24600246     0.10000000 1 1 1
     0.92127921     0.28290283     0.10000000 1 1 1
     0.95448955     0.31980320     0.10000000 1 1 1
     0.98769988     0.35670356     0.10000000 1 1 1
     1.02091021     0.39360393     0.10000000 1 1 1
     1.05412054     0.43050430     0.10000000 1 1 1
     0.79212792     0.02829028     0.10000000 1 1 1
     0.82533825     0.06519065     0.10000000 1 1 1
     0.85854859     0.10209102     0.10000000 1 1 1
     0.89175892     0.13899139     0.10000000 1 1 1
     0.92496925     0.17589176     0.10000000 1 1 1
     0.95817958     0.21279213     0.10000000 1 1 1
     0.99138991     0.24969249     0.10000000 1 1 1
     1.02460025     0.28659286     0.10000000 1 1 1
     1.05781058     0.32349323     0.10000000 1 1 1
     0.89544895     0.03198032     0.10000000 1 1 1
     0.92865929     0.06888069     0.10000000 1 1 1
     0.96186962     0.10578106     0.10000000 1 1 1
     0.99507995     0.14268142     0.10000000 1 1 1
     1.02829028     0.17958179     0.10000000 1 1 1
     1.06150062     0.21648216     0.10000000 1 1 1
     0.99876999     0.03567035     0.10000000 1 1 1
     1.03198032     0.07257072     0.10000000 1 1 1
     1.06519065     0.10947109     0.10000000 1 1 1
     0.03321033     0.92988930     0.21361333 1 1 1
     0.07011070     0.96309963     0.21361333 1 1 1
     0.10701107     0.99630996     0.21361333 1 1 1
     0.02952030     0.82656827     0.21361333 1 1 1
     0.06642066     0.85977860     0.21361333 1 1 1
     0.10332103     0.89298893     0.21361333 1 1 1
     0.14022140     0.92619926     0.21361333 1 1 1
     0.17712177     0.95940959     0.21361333 1 1 1
     0.21402214     0.99261993     0.21361333 1 1 1
     0.02583026     0.72324723     0.21361333 1 1 1
     0.06273063     0.75645756     0.21361333 1 1 1
     0.09963100     0.78966790     0.21361333 1 1 1
     0.13653137     0.82287823     0.21361333 1 1 1
     0.17343173     0.85608856     0.21361333 1 1 1
     0.21033210     0.88929889     0.21361333 1 1 1
     0.24723247     0.92250923     0.21361333 1 1 1
     0.28413284     0.95571956     0.21361333 1 1 1
     0.32103321     0.98892989     0.21361333 1 1 1
     0.02214022     0.61992620     0.21361333 1 1 1
     0.05904059     0.65313653     0.21361333 1 1 1
     0.09594096     0.68634686     0.21361333 1 1 1
     0.13284133     0.71955720     0.21361333 1 1 1
     0.16974170     0.75276753     0.21361333 1 1 1
     0.20664207     0.78597786     0.21361333 1 1 1
     0.24354244     0.81918819     0.21361333 1 1 1
     0.28044280     0.85239852     0.21361333 1 1 1
     0.31734317     0.88560886     0.21361333 1 1 1
     0.35424354     0.91881919     0.21361333 1 1 1