ATOMIC_SPECIES
C 6.000 /mnt/C_ONCV_PBE-1.0.upf

NUMERICAL_ORBITAL
/mnt/C_gga_8au_100Ry_2s2p1d.orb

LATTICE_CONSTANT
1.889716

LATTICE_VECTORS
       39.3520005571       21.2998951116       0.0000000000
       -14.2803183615       26.3831860755       0.0000000000
       19.6760002786       10.6499475558       38.7517626658

ATOMIC_POSITIONS
Direct

C
0.0
1324
     0.003021150     0.100000000     0.903323260 1 1 1
     0.033232630     0.100000000     0.936555890 1 1 1
     0.063444110     0.100000000     0.969788520 1 1 1
     0.006042300     0.100000000     0.806646530 1 1 1
     0.036253780     0.100000000     0.839879150 1 1 1
     0.066465260     0.100000000     0.873111780 1 1 1
     0.096676740     0.100000000     0.906344410 1 1 1
     0.126888220     0.100000000     0.939577040 1 1 1
     0.157099700     0.100000000     0.972809670 1 1 1
     0.009063440     0.100000000     0.709969790 1 1 1
     0.039274920     0.100000000     0.743202420 1 1 1
     0.069486400     0.100000000     0.776435050 1 1 1
     0.099697890     0.100000000     0.809667670 1 1 1
     0.129909370     0.100000000     0.842900300 1 1 1
     0.160120850     0.100000000     0.876132930 1 1 1
     0.190332330     0.100000000     0.909365560 1 1 1
     0.220543810     0.100000000     0.942598190 1 1 1
     0.250755290     0.100000000     0.975830820 1 1 1
     0.012084590     0.100000000     0.613293050 1 1 1
     0.042296070     0.100000000     0.646525680 1 1 1
     0.072507550     0.100000000     0.679758310 1 1 1
     0.102719030     0.100000000     0.712990940 1 1 1
     0.132930510     0.100000000     0.746223560 1 1 1
     0.163141990     0.100000000     0.779456190 1 1 1
     0.193353470     0.100000000     0.812688820 1 1 1
     0.223564950     0.100000000     0.845921450 1 1 1
     0.253776440     0.100000000     0.879154080 1 1 1
     0.283987920     0.100000000     0.912386710 1 1 1
     0.314199400     0.100000000     0.945619340 1 1 1
     0.344410880     0.100000000     0.978851960 1 1 1
     0.015105740     0.100000000     0.516616310 1 1 1
     0.045317220     0.100000000     0.549848940 1 1 1
     0.075528700     0.100000000     0.583081570 1 1 1
     0.105740180     0.100000000     0.616314200 1 1 1
     0.135951660     0.100000000     0.649546830 1 1 1
     0.166163140     0.100000000     0.682779460 1 1 1
     0.196374620     0.100000000     0.716012080 1 1 1
     0.226586100     0.100000000     0.749244710 1 1 1
     0.256797580     0.100000000     0.782477340 1 1 1
     0.287009060     0.100000000     0.815709970 1 1 1
     0.317220540     0.100000000     0.848942600 1 1 1
     0.347432020     0.100000000     0.882175230 1 1 1
     0.377643500     0.100000000     0.915407850 1 1 1
     0.407854980     0.100000000     0.948640480 1 1 1
     0.438066470     0.100000000     0.981873110 1 1 1
     0.018126890     0.100000000     0.419939580 1 1 1
     0.048338370     0.100000000     0.453172210 1 1 1
     0.078549850     0.100000000     0.486404830 1 1 1
     0.108761330     0.100000000     0.519637460 1 1 1
     0.138972810     0.100000000     0.552870090 1 1 1
     0.169184290     0.100000000     0.586102720 1 1 1
     0.199395770     0.100000000     0.619335350 1 1 1
     0.229607250     0.100000000     0.652567980 1 1 1
     0.259818730     0.100000000     0.685800600 1 1 1
     0.290030210     0.100000000     0.719033230 1 1 1
     0.320241690     0.100000000     0.752265860 1 1 1
     0.350453170     0.100000000     0.785498490 1 1 1
     0.380664650     0.100000000     0.818731120 1 1 1
     0.410876130     0.100000000     0.851963750 1 1 1
     0.441087610     0.100000000     0.885196370 1 1 1
     0.471299090     0.100000000     0.918429000 1 1 1
     0.501510570     0.100000000     0.951661630 1 1 1
     0.531722050     0.100000000     0.984894260 1 1 1
     0.021148040     0.100000000     0.323262840 1 1 1
     0.051359520     0.100000000     0.356495470 1 1 1
     0.081571000     0.100000000     0.389728100 1 1 1
     0.111782480     0.100000000     0.422960730 1 1 1
     0.141993960     0.100000000     0.456193350 1 1 1
     0.172205440     0.100000000     0.489425980 1 1 1
     0.202416920     0.100000000     0.522658610 1 1 1
     0.232628400     0.100000000     0.555891240 1 1 1
     0.262839880     0.100000000     0.589123870 1 1 1
     0.293051360     0.100000000     0.622356500 1 1 1
     0.323262840     0.100000000     0.655589120 1 1 1
     0.353474320     0.100000000     0.688821750 1 1 1
     0.383685800     0.100000000     0.722054380 1 1 1
     0.413897280     0.100000000     0.755287010 1 1 1
     0.444108760     0.100000000     0.788519640 1 1 1
     0.474320240     0.100000000     0.821752270 1 1 1
     0.504531720     0.100000000     0.854984890 1 1 1
     0.534743200     0.100000000     0.888217520 1 1 1
     0.564954680     0.100000000     0.921450150 1 1 1
     0.595166160     0.100000000     0.954682780 1 1 1
     0.625377640     0.100000000     0.987915410 1 1 1
     0.024169180     0.100000000     0.226586100 1 1 1
     0.054380660     0.100000000     0.259818730 1 1 1
     0.084592150     0.100000000     0.293051360 1 1 1
     0.114803630     0.100000000     0.326283990 1 1 1
     0.145015110     0.100000000     0.359516620 1 1 1
     0.175226590     0.100000000     0.392749240 1 1 1
     0.205438070     0.100000000     0.425981870 1 1 1
     0.235649550     0.100000000     0.459214500 1 1 1
     0.265861030     0.100000000     0.492447130 1 1 1
     0.296072510     0.100000000     0.525679760 1 1 1
     0.326283990     0.100000000     0.558912390 1 1 1
     0.356495470     0.100000000     0.592145020 1 1 1
     0.386706950     0.100000000     0.625377640 1 1 1
     0.416918430     0.100000000     0.658610270 1 1 1
     0.447129910     0.100000000     0.691842900 1 1 1
     0.477341390     0.100000000     0.725075530 1 1 1
     0.507552870     0.100000000     0.758308160 1 1 1
     0.537764350     0.100000000     0.791540790 1 1 1
     0.567975830     0.100000000     0.824773410 1 1 1
     0.598187310     0.100000000     0.858006040 1 1 1
     0.628398790     0.100000000     0.891238670 1 1 1
     0.658610270     0.100000000     0.924471300 1 1 1
     0.688821750     0.100000000     0.957703930 1 1 1
     0.719033230     0.100000000     0.990936560 1 1 1
     0.027190330     0.100000000     0.129909370 1 1 1
     0.057401810     0.100000000     0.163141990 1 1 1
     0.087613290     0.100000000     0.196374620 1 1 1
     0.117824770     0.100000000     0.229607250 1 1 1
     0.148036250     0.100000000     0.262839880 1 1 1
     0.178247730     0.100000000     0.296072510 1 1 1
     0.208459210     0.100000000     0.329305140 1 1 1
     0.238670690     0.100000000     0.362537760 1 1 1
     0.268882180     0.100000000     0.395770390 1 1 1
     0.299093660     0.100000000     0.429003020 1 1 1
     0.329305140     0.100000000     0.462235650 1 1 1
     0.359516620     0.100000000     0.495468280 1 1 1
     0.389728100     0.100000000     0.528700910 1 1 1
     0.419939580     0.100000000     0.561933530 1 1 1
     0.450151060     0.100000000     0.595166160 1 1 1
     0.480362540     0.100000000     0.628398790 1 1 1
     0.510574020     0.100000000     0.661631420 1 1 1
     0.540785500     0.100000000     0.694864050 1 1 1
     0.570996980     0.100000000     0.728096680 1 1 1
     0.601208460     0.100000000     0.761329310 1 1 1
     0.631419940     0.100000000     0.794561930 1 1 1
     0.661631420     0.100000000     0.827794560 1 1 1
     0.691842900     0.100000000     0.861027190 1 1 1
     0.722054380     0.100000000     0.894259820 1 1 1
     0.752265860     0.100000000     0.927492450 1 1 1
     0.782477340     0.100000000     0.960725080 1 1 1
     0.812688820     0.100000000     0.993957700 1 1 1
     0.000000000     0.100000000     0.000000000 1 1 1
     0.030211480     0.100000000     0.033232630 1 1 1
     0.060422960     0.100000000     0.066465260 1 1 1
     0.090634440     0.100000000     0.099697890 1 1 1
     0.120845920     0.100000000     0.132930510 1 1 1
     0.151057400     0.100000000     0.166163140 1 1 1
     0.181268880     0.100000000     0.199395770 1 1 1
     0.211480360     0.100000000     0.232628400 1 1 1
     0.241691840     0.100000000     0.265861030 1 1 1
     0.271903320     0.100000000     0.299093660 1 1 1
     0.302114800     0.100000000     0.332326280 1 1 1
     0.332326280     0.100000000     0.365558910 1 1 1
     0.362537760     0.100000000     0.398791540 1 1 1
     0.392749240     0.100000000     0.432024170 1 1 1
     0.422960730     0.100000000     0.465256800 1 1 1
     0.453172210     0.100000000     0.498489430 1 1 1
     0.483383690     0.100000000     0.531722050 1 1 1
     0.513595170     0.100000000     0.564954680 1 1 1
     0.543806650     0.100000000     0.598187310 1 1 1
     0.574018130     0.100000000     0.631419940 1 1 1
     0.604229610     0.100000000     0.664652570 1 1 1
     0.634441090     0.100000000     0.697885200 1 1 1
     0.664652570     0.100000000     0.731117820 1 1 1
     0.694864050     0.100000000     0.764350450 1 1 1
     0.725075530     0.100000000     0.797583080 1 1 1
     0.755287010     0.100000000     0.830815710 1 1 1
     0.785498490     0.100000000     0.864048340 1 1 1
     0.815709970     0.100000000     0.897280970 1 1 1
     0.845921450     0.100000000     0.930513600 1 1 1
     0.876132930     0.100000000     0.963746220 1 1 1
     0.906344410     0.100000000     0.996978850 1 1 1
     0.093655590     0.100000000     0.003021150 1 1 1
     0.123867070     0.100000000     0.036253780 1 1 1
     0.154078550     0.100000000     0.069486400 1 1 1
     0.184290030     0.100000000     0.102719030 1 1 1
     0.214501510     0.100000000     0.135951660 1 1 1
     0.244712990     0.100000000     0.169184290 1 1 1
     0.274924470     0.100000000     0.202416920 1 1 1
     0.305135950     0.100000000     0.235649550 1 1 1
     0.335347430     0.100000000     0.268882180 1 1 1
     0.365558910     0.100000000     0.302114800 1 1 1
     0.395770390     0.100000000     0.335347430 1 1 1
     0.425981870     0.100000000     0.368580060 1 1 1
     0.456193350     0.100000000     0.401812690 1 1 1
     0.486404830     0.100000000     0.435045320 1 1 1
     0.516616310     0.100000000     0.468277950 1 1 1
     0.546827790     0.100000000     0.501510570 1 1 1
     0.577039270     0.100000000     0.534743200 1 1 1
     0.607250760     0.100000000     0.567975830 1 1 1
     0.637462240     0.100000000     0.601208460 1 1 1
     0.667673720     0.100000000     0.634441090 1 1 1
     0.697885200     0.100000000     0.667673720 1 1 1
     0.728096680     0.100000000     0.700906340 1 1 1
     0.758308160     0.100000000     0.734138970 1 1 1
     0.788519640     0.100000000     0.767371600 1 1 1
     0.818731120     0.100000000     0.800604230 1 1 1
     0.848942600     0.100000000     0.833836860 1 1 1
     0.879154080     0.100000000     0.867069490 1 1 1
     0.909365560     0.100000000     0.900302110 1 1 1
     0.939577040     0.100000000     0.933534740 1 1 1
     0.969788520     0.100000000     0.966767370 1 1 1
     0.187311180     0.100000000     0.006042300 1 1 1
     0.217522660     0.100000000     0.039274920 1 1 1
     0.247734140     0.100000000     0.072507550 1 1 1
     0.277945620     0.100000000     0.105740180 1 1 1
     0.308157100     0.100000000     0.138972810 1 1 1
     0.338368580     0.100000000     0.172205440 1 1 1
     0.368580060     0.100000000     0.205438070 1 1 1
     0.398791540     0.100000000     0.238670690 1 1 1
     0.429003020     0.100000000     0.271903320 1 1 1
     0.459214500     0.100000000     0.305135950 1 1 1
     0.489425980     0.100000000     0.338368580 1 1 1
     0.519637460     0.100000000     0.371601210 1 1 1
     0.549848940     0.100000000     0.404833840 1 1 1
     0.580060420     0.100000000     0.438066470 1 1 1
     0.610271900     0.100000000     0.471299090 1 1 1
     0.640483380     0.100000000     0.504531720 1 1 1
     0.670694860     0.100000000     0.537764350 1 1 1
     0.700906340     0.100000000     0.570996980 1 1 1
     0.731117820     0.100000000     0.604229610 1 1 1
     0.761329310     0.100000000     0.637462240 1 1 1
     0.791540790     0.100000000     0.670694860 1 1 1
     0.821752270     0.100000000     0.703927490 1 1 1
     0.851963750     0.100000000     0.737160120 1 1 1
     0.882175230     0.100000000     0.770392750 1 1 1
     0.912386710     0.100000000     0.803625380 1 1 1
     0.942598190     0.100000000     0.836858010 1 1 1
     0.972809670     0.100000000     0.870090630 1 1 1
     0.280966770     0.100000000     0.009063440 1 1 1
     0.311178250     0.100000000     0.042296070 1 1 1
     0.341389730     0.100000000     0.075528700 1 1 1
     0.371601210     0.100000000     0.108761330 1 1 1
     0.401812690     0.100000000     0.141993960 1 1 1
     0.432024170     0.100000000     0.175226590 1 1 1
     0.462235650     0.100000000     0.208459210 1 1 1
     0.492447130     0.100000000     0.241691840 1 1 1
     0.522658610     0.100000000     0.274924470 1 1 1
     0.552870090     0.100000000     0.308157100 1 1 1
     0.583081570     0.100000000     0.341389730 1 1 1
     0.613293050     0.100000000     0.374622360 1 1 1
     0.643504530     0.100000000     0.407854980 1 1 1
     0.673716010     0.100000000     0.441087610 1 1 1
     0.703927490     0.100000000     0.474320240 1 1 1
     0.734138970     0.100000000     0.507552870 1 1 1
     0.764350450     0.100000000     0.540785500 1 1 1
     0.794561930     0.100000000     0.574018130 1 1 1
     0.824773410     0.100000000     0.607250760 1 1 1
     0.854984890     0.100000000     0.640483380 1 1 1
     0.885196370     0.100000000     0.673716010 1 1 1
     0.915407850     0.100000000     0.706948640 1 1 1
     0.945619340     0.100000000     0.740181270 1 1 1
     0.975830820     0.100000000     0.773413900 1 1 1
     0.374622360     0.100000000     0.012084590 1 1 1
     0.404833840     0.100000000     0.045317220 1 1 1
     0.435045320     0.100000000     0.078549850 1 1 1
     0.465256800     0.100000000     0.111782480 1 1 1
     0.495468280     0.100000000     0.145015110 1 1 1
     0.525679760     0.100000000     0.178247730 1 1 1
     0.555891240     0.100000000     0.211480360 1 1 1
     0.586102720     0.100000000     0.244712990 1 1 1
     0.616314200     0.100000000     0.277945620 1 1 1
     0.646525680     0.100000000     0.311178250 1 1 1
     0.676737160     0.100000000     0.344410880 1 1 1
     0.706948640     0.100000000     0.377643500 1 1 1
     0.737160120     0.100000000     0.410876130 1 1 1
     0.767371600     0.100000000     0.444108760 1 1 1
     0.797583080     0.100000000     0.477341390 1 1 1
     0.827794560     0.100000000     0.510574020 1 1 1
     0.858006040     0.100000000     0.543806650 1 1 1
     0.888217520     0.100000000     0.577039270 1 1 1
     0.918429000     0.100000000     0.610271900 1 1 1
     0.948640480     0.100000000     0.643504530 1 1 1
     0.978851960     0.100000000     0.676737160 1 1 1
     0.468277950     0.100000000     0.015105740 1 1 1
     0.498489430     0.100000000     0.048338370 1 1 1
     0.528700910     0.100000000     0.081571000 1 1 1
     0.558912390     0.100000000     0.114803630 1 1 1
     0.589123870     0.100000000     0.148036250 1 1 1
     0.619335350     0.100000000     0.181268880 1 1 1
     0.649546830     0.100000000     0.214501510 1 1 1
     0.679758310     0.100000000     0.247734140 1 1 1
     0.709969790     0.100000000     0.280966770 1 1 1
     0.740181270     0.100000000     0.314199400 1 1 1
     0.770392750     0.100000000     0.347432020 1 1 1
     0.800604230     0.100000000     0.380664650 1 1 1
     0.830815710     0.100000000     0.413897280 1 1 1
     0.861027190     0.100000000     0.447129910 1 1 1
     0.891238670     0.100000000     0.480362540 1 1 1
     0.921450150     0.100000000     0.513595170 1 1 1
     0.951661630     0.100000000     0.546827790 1 1 1
     0.981873110     0.100000000     0.580060420 1 1 1
     0.561933530     0.100000000     0.018126890 1 1 1
     0.592145020     0.100000000     0.051359520 1 1 1
     0.622356500     0.100000000     0.084592150 1 1 1
     0.652567980     0.100000000     0.117824770 1 1 1
     0.682779460     0.100000000     0.151057400 1 1 1
     0.712990940     0.100000000     0.184290030 1 1 1
     0.743202420     0.100000000     0.217522660 1 1 1
     0.773413900     0.100000000     0.250755290 1 1 1
     0.803625380     0.100000000     0.283987920 1 1 1
     0.833836860     0.100000000     0.317220540 1 1 1
     0.864048340     0.100000000     0.350453170 1 1 1
     0.894259820     0.100000000     0.383685800 1 1 1
     0.924471300     0.100000000     0.416918430 1 1 1
     0.954682780     0.100000000     0.450151060 1 1 1
     0.984894260     0.100000000     0.483383690 1 1 1
     0.655589120     0.100000000     0.021148040 1 1 1
     0.685800600     0.100000000     0.054380660 1 1 1
     0.716012080     0.100000000     0.087613290 1 1 1
     0.746223560     0.100000000     0.120845920 1 1 1
     0.776435050     0.100000000     0.154078550 1 1 1
     0.806646530     0.100000000     0.187311180 1 1 1
     0.836858010     0.100000000     0.220543810 1 1 1
     0.867069490     0.100000000     0.253776440 1 1 1
     0.897280970     0.100000000     0.287009060 1 1 1
     0.927492450     0.100000000     0.320241690 1 1 1
     0.957703930     0.100000000     0.353474320 1 1 1
     0.987915410     0.100000000     0.386706950 1 1 1
     0.749244710     0.100000000     0.024169180 1 1 1
     0.779456190     0.100000000     0.057401810 1 1 1
     0.809667670     0.100000000     0.090634440 1 1 1
     0.839879150     0.100000000     0.123867070 1 1 1
     0.870090630     0.100000000     0.157099700 1 1 1
     0.900302110     0.100000000     0.190332330 1 1 1
     0.930513600     0.100000000     0.223564950 1 1 1
     0.960725080     0.100000000     0.256797580 1 1 1
     0.990936560     0.100000000     0.290030210 1 1 1
     0.842900300     0.100000000     0.027190330 1 1 1
     0.873111780     0.100000000     0.060422960 1 1 1
     0.903323260     0.100000000     0.093655590 1 1 1
     0.933534740     0.100000000     0.126888220 1 1 1
     0.963746220     0.100000000     0.160120850 1 1 1
     0.993957700     0.100000000     0.193353470 1 1 1
     0.936555890     0.100000000     0.030211480 1 1 1
     0.966767370     0.100000000     0.063444110 1 1 1
     0.996978850     0.100000000     0.096676740 1 1 1
     0.065458210     0.100000000     0.905337360 1 1 1
     0.095669690     0.100000000     0.938569990 1 1 1
     0.125881170     0.100000000     0.971802620 1 1 1
     0.068479360     0.100000000     0.808660620 1 1 1
     0.098690840     0.100000000     0.841893250 1 1 1
     0.128902320     0.100000000     0.875125880 1 1 1
     0.159113800     0.100000000     0.908358510 1 1 1
     0.189325280     0.100000000     0.941591140 1 1 1
     0.219536760     0.100000000     0.974823760 1 1 1
     0.071500500     0.100000000     0.711983890 1 1 1
     0.101711980     0.100000000     0.745216510 1 1 1
     0.131923460     0.100000000     0.778449140 1 1 1
     0.162134940     0.100000000     0.811681770 1 1 1
     0.192346430     0.100000000     0.844914400 1 1 1
     0.222557910     0.100000000     0.878147030 1 1 1
     0.252769390     0.100000000     0.911379660 1 1 1
     0.282980870     0.100000000     0.944612280 1 1 1
     0.313192350     0.100000000     0.977844910 1 1 1
     0.074521650     0.100000000     0.615307150 1 1 1
     0.104733130     0.100000000     0.648539780 1 1 1
     0.134944610     0.100000000     0.681772400 1 1 1
     0.165156090     0.100000000     0.715005030 1 1 1
     0.195367570     0.100000000     0.748237660 1 1 1
     0.225579050     0.100000000     0.781470290 1 1 1
     0.255790530     0.100000000     0.814702920 1 1 1
     0.286002010     0.100000000     0.847935550 1 1 1
     0.316213490     0.100000000     0.881168180 1 1 1
     0.346424970     0.100000000     0.914400800 1 1 1
     0.376636460     0.100000000     0.947633430 1 1 1
     0.406847940     0.100000000     0.980866060 1 1 1
     0.077542800     0.100000000     0.518630410 1 1 1
     0.107754280     0.100000000     0.551863040 1 1 1
     0.137965760     0.100000000     0.585095670 1 1 1
     0.168177240     0.100000000     0.618328300 1 1 1
     0.198388720     0.100000000     0.651560920 1 1 1
     0.228600200     0.100000000     0.684793550 1 1 1
     0.258811680     0.100000000     0.718026180 1 1 1
     0.289023160     0.100000000     0.751258810 1 1 1
     0.319234640     0.100000000     0.784491440 1 1 1
     0.349446120     0.100000000     0.817724070 1 1 1
     0.379657600     0.100000000     0.850956690 1 1 1
     0.409869080     0.100000000     0.884189320 1 1 1
     0.440080560     0.100000000     0.917421950 1 1 1
     0.470292040     0.100000000     0.950654580 1 1 1
     0.500503520     0.100000000     0.983887210 1 1 1
     0.080563950     0.100000000     0.421953670 1 1 1
     0.110775430     0.100000000     0.455186300 1 1 1
     0.140986910     0.100000000     0.488418930 1 1 1
     0.171198390     0.100000000     0.521651560 1 1 1
     0.201409870     0.100000000     0.554884190 1 1 1
     0.231621350     0.100000000     0.588116820 1 1 1
     0.261832830     0.100000000     0.621349440 1 1 1
     0.292044310     0.100000000     0.654582070 1 1 1
     0.322255790     0.100000000     0.687814700 1 1 1
     0.352467270     0.100000000     0.721047330 1 1 1
     0.382678750     0.100000000     0.754279960 1 1 1
     0.412890230     0.100000000     0.787512590 1 1 1
     0.443101710     0.100000000     0.820745210 1 1 1
     0.473313190     0.100000000     0.853977840 1 1 1
     0.503524670     0.100000000     0.887210470 1 1 1
     0.533736150     0.100000000     0.920443100 1 1 1
     0.563947630     0.100000000     0.953675730 1 1 1
     0.594159110     0.100000000     0.986908360 1 1 1
     0.083585100     0.100000000     0.325276940 1 1 1
     0.113796580     0.100000000     0.358509570 1 1 1
     0.144008060     0.100000000     0.391742190 1 1 1
     0.174219540     0.100000000     0.424974820 1 1 1
     0.204431020     0.100000000     0.458207450 1 1 1
     0.234642500     0.100000000     0.491440080 1 1 1
     0.264853980     0.100000000     0.524672710 1 1 1
     0.295065460     0.100000000     0.557905340 1 1 1
     0.325276940     0.100000000     0.591137960 1 1 1
     0.355488420     0.100000000     0.624370590 1 1 1
     0.385699900     0.100000000     0.657603220 1 1 1
     0.415911380     0.100000000     0.690835850 1 1 1
     0.446122860     0.100000000     0.724068480 1 1 1
     0.476334340     0.100000000     0.757301110 1 1 1
     0.506545820     0.100000000     0.790533730 1 1 1
     0.536757300     0.100000000     0.823766360 1 1 1
     0.566968780     0.100000000     0.856998990 1 1 1
     0.597180260     0.100000000     0.890231620 1 1 1
     0.627391740     0.100000000     0.923464250 1 1 1
     0.657603220     0.100000000     0.956696880 1 1 1
     0.687814700     0.100000000     0.989929500 1 1 1
     0.086606240     0.100000000     0.228600200 1 1 1
     0.116817720     0.100000000     0.261832830 1 1 1
     0.147029200     0.100000000     0.295065460 1 1 1
     0.177240680     0.100000000     0.328298080 1 1 1
     0.207452170     0.100000000     0.361530710 1 1 1
     0.237663650     0.100000000     0.394763340 1 1 1
     0.267875130     0.100000000     0.427995970 1 1 1
     0.298086610     0.100000000     0.461228600 1 1 1
     0.328298090     0.100000000     0.494461230 1 1 1
     0.358509570     0.100000000     0.527693860 1 1 1
     0.388721050     0.100000000     0.560926480 1 1 1
     0.418932530     0.100000000     0.594159110 1 1 1
     0.449144010     0.100000000     0.627391740 1 1 1
     0.479355490     0.100000000     0.660624370 1 1 1
     0.509566970     0.100000000     0.693857000 1 1 1
     0.539778450     0.100000000     0.727089630 1 1 1
     0.569989930     0.100000000     0.760322250 1 1 1
     0.600201410     0.100000000     0.793554880 1 1 1
     0.630412890     0.100000000     0.826787510 1 1 1
     0.660624370     0.100000000     0.860020140 1 1 1
     0.690835850     0.100000000     0.893252770 1 1 1
     0.721047330     0.100000000     0.926485400 1 1 1
     0.751258810     0.100000000     0.959718020 1 1 1
     0.781470290     0.100000000     0.992950650 1 1 1
     0.089627390     0.100000000     0.131923460 1 1 1
     0.119838870     0.100000000     0.165156090 1 1 1
     0.150050350     0.100000000     0.198388720 1 1 1
     0.180261830     0.100000000     0.231621350 1 1 1
     0.210473310     0.100000000     0.264853980 1 1 1
     0.240684790     0.100000000     0.298086600 1 1 1
     0.270896270     0.100000000     0.331319230 1 1 1
     0.301107750     0.100000000     0.364551860 1 1 1
     0.331319230     0.100000000     0.397784490 1 1 1
     0.361530720     0.100000000     0.431017120 1 1 1
     0.391742200     0.100000000     0.464249750 1 1 1
     0.421953680     0.100000000     0.497482370 1 1 1
     0.452165160     0.100000000     0.530715000 1 1 1
     0.482376640     0.100000000     0.563947630 1 1 1
     0.512588120     0.100000000     0.597180260 1 1 1
     0.542799600     0.100000000     0.630412890 1 1 1
     0.573011080     0.100000000     0.663645520 1 1 1
     0.603222560     0.100000000     0.696878150 1 1 1
     0.633434040     0.100000000     0.730110770 1 1 1
     0.663645520     0.100000000     0.763343400 1 1 1
     0.693857000     0.100000000     0.796576030 1 1 1
     0.724068480     0.100000000     0.829808660 1 1 1
     0.754279960     0.100000000     0.863041290 1 1 1
     0.784491440     0.100000000     0.896273920 1 1 1
     0.814702920     0.100000000     0.929506540 1 1 1
     0.844914400     0.100000000     0.962739170 1 1 1
     0.875125880     0.100000000     0.995971800 1 1 1
     0.062437060     0.100000000     0.002014100 1 1 1
     0.092648540     0.100000000     0.035246730 1 1 1
     0.122860020     0.100000000     0.068479350 1 1 1
     0.153071500     0.100000000     0.101711980 1 1 1
     0.183282980     0.100000000     0.134944610 1 1 1
     0.213494460     0.100000000     0.168177240 1 1 1
     0.243705940     0.100000000     0.201409870 1 1 1
     0.273917420     0.100000000     0.234642500 1 1 1
     0.304128900     0.100000000     0.267875120 1 1 1
     0.334340380     0.100000000     0.301107750 1 1 1
     0.364551860     0.100000000     0.334340380 1 1 1
     0.394763340     0.100000000     0.367573010 1 1 1
     0.424974820     0.100000000     0.400805640 1 1 1
     0.455186300     0.100000000     0.434038270 1 1 1
     0.485397780     0.100000000     0.467270890 1 1 1
     0.515609260     0.100000000     0.500503520 1 1 1
     0.545820750     0.100000000     0.533736150 1 1 1
     0.576032230     0.100000000     0.566968780 1 1 1
     0.606243710     0.100000000     0.600201410 1 1 1
     0.636455190     0.100000000     0.633434040 1 1 1
     0.666666670     0.100000000     0.666666660 1 1 1
     0.696878150     0.100000000     0.699899290 1 1 1
     0.727089630     0.100000000     0.733131920 1 1 1
     0.757301110     0.100000000     0.766364550 1 1 1
     0.787512590     0.100000000     0.799597180 1 1 1
     0.817724070     0.100000000     0.832829810 1 1 1
     0.847935550     0.100000000     0.866062440 1 1 1
     0.878147030     0.100000000     0.899295060 1 1 1
     0.908358510     0.100000000     0.932527690 1 1 1
     0.938569990     0.100000000     0.965760320 1 1 1
     0.968781470     0.100000000     0.998992950 1 1 1
     0.156092650     0.100000000     0.005035240 1 1 1
     0.186304130     0.100000000     0.038267870 1 1 1
     0.216515610     0.100000000     0.071500500 1 1 1
     0.246727090     0.100000000     0.104733130 1 1 1
     0.276938570     0.100000000     0.137965760 1 1 1
     0.307150050     0.100000000     0.171198390 1 1 1
     0.337361530     0.100000000     0.204431020 1 1 1
     0.367573010     0.100000000     0.237663640 1 1 1
     0.397784490     0.100000000     0.270896270 1 1 1
     0.427995970     0.100000000     0.304128900 1 1 1
     0.458207450     0.100000000     0.337361530 1 1 1
     0.488418930     0.100000000     0.370594160 1 1 1
     0.518630410     0.100000000     0.403826790 1 1 1
     0.548841890     0.100000000     0.437059410 1 1 1
     0.579053370     0.100000000     0.470292040 1 1 1
     0.609264850     0.100000000     0.503524670 1 1 1
     0.639476330     0.100000000     0.536757300 1 1 1
     0.669687810     0.100000000     0.569989930 1 1 1
     0.699899300     0.100000000     0.603222560 1 1 1
     0.730110780     0.100000000     0.636455180 1 1 1
     0.760322260     0.100000000     0.669687810 1 1 1
     0.790533740     0.100000000     0.702920440 1 1 1
     0.820745220     0.100000000     0.736153070 1 1 1
     0.850956700     0.100000000     0.769385700 1 1 1
     0.881168180     0.100000000     0.802618330 1 1 1
     0.911379660     0.100000000     0.835850950 1 1 1
     0.941591140     0.100000000     0.869083580 1 1 1
     0.971802620     0.100000000     0.902316210 1 1 1
     0.002014100     0.100000000     0.935548840 1 1 1
     0.032225580     0.100000000     0.968781470 1 1 1
     0.249748240     0.100000000     0.008056390 1 1 1
     0.279959720     0.100000000     0.041289020 1 1 1
     0.310171200     0.100000000     0.074521650 1 1 1
     0.340382680     0.100000000     0.107754280 1 1 1
     0.370594160     0.100000000     0.140986910 1 1 1
     0.400805640     0.100000000     0.174219530 1 1 1
     0.431017120     0.100000000     0.207452160 1 1 1
     0.461228600     0.100000000     0.240684790 1 1 1
     0.491440080     0.100000000     0.273917420 1 1 1
     0.521651560     0.100000000     0.307150050 1 1 1
     0.551863040     0.100000000     0.340382680 1 1 1