ATOMIC_SPECIES
C 6.000 /mnt/C_ONCV_PBE-1.0.upf

NUMERICAL_ORBITAL
/mnt/C_gga_8au_100Ry_2s2p1d.orb

LATTICE_CONSTANT
1.889716

LATTICE_VECTORS
       50.4197490557       27.6898627314       0.0000000000
       -14.4411432352       26.2955011753       0.0000000000
       25.2098745279       13.8449313657       49.8162593407

ATOMIC_POSITIONS
Direct

C
0.0
2188
     0.001828150     0.100000000     0.925045700 1 1 1
     0.025594150     0.100000000     0.950639850 1 1 1
     0.049360150     0.100000000     0.976234000 1 1 1
     0.003656310     0.100000000     0.850091410 1 1 1
     0.027422300     0.100000000     0.875685560 1 1 1
     0.051188300     0.100000000     0.901279710 1 1 1
     0.074954300     0.100000000     0.926873860 1 1 1
     0.098720290     0.100000000     0.952468010 1 1 1
     0.122486290     0.100000000     0.978062160 1 1 1
     0.005484460     0.100000000     0.775137110 1 1 1
     0.029250460     0.100000000     0.800731260 1 1 1
     0.053016450     0.100000000     0.826325410 1 1 1
     0.076782450     0.100000000     0.851919560 1 1 1
     0.100548450     0.100000000     0.877513710 1 1 1
     0.124314440     0.100000000     0.903107860 1 1 1
     0.148080440     0.100000000     0.928702010 1 1 1
     0.171846440     0.100000000     0.954296160 1 1 1
     0.195612430     0.100000000     0.979890310 1 1 1
     0.007312610     0.100000000     0.700182820 1 1 1
     0.031078610     0.100000000     0.725776970 1 1 1
     0.054844610     0.100000000     0.751371120 1 1 1
     0.078610600     0.100000000     0.776965270 1 1 1
     0.102376600     0.100000000     0.802559410 1 1 1
     0.126142600     0.100000000     0.828153560 1 1 1
     0.149908590     0.100000000     0.853747710 1 1 1
     0.173674590     0.100000000     0.879341860 1 1 1
     0.197440590     0.100000000     0.904936010 1 1 1
     0.221206580     0.100000000     0.930530160 1 1 1
     0.244972580     0.100000000     0.956124310 1 1 1
     0.268738570     0.100000000     0.981718460 1 1 1
     0.009140770     0.100000000     0.625228520 1 1 1
     0.032906760     0.100000000     0.650822670 1 1 1
     0.056672760     0.100000000     0.676416820 1 1 1
     0.080438760     0.100000000     0.702010970 1 1 1
     0.104204750     0.100000000     0.727605120 1 1 1
     0.127970750     0.100000000     0.753199270 1 1 1
     0.151736750     0.100000000     0.778793420 1 1 1
     0.175502740     0.100000000     0.804387570 1 1 1
     0.199268740     0.100000000     0.829981720 1 1 1
     0.223034730     0.100000000     0.855575870 1 1 1
     0.246800730     0.100000000     0.881170020 1 1 1
     0.270566730     0.100000000     0.906764170 1 1 1
     0.294332720     0.100000000     0.932358320 1 1 1
     0.318098720     0.100000000     0.957952470 1 1 1
     0.341864720     0.100000000     0.983546620 1 1 1
     0.010968920     0.100000000     0.550274220 1 1 1
     0.034734920     0.100000000     0.575868370 1 1 1
     0.058500910     0.100000000     0.601462520 1 1 1
     0.082266910     0.100000000     0.627056670 1 1 1
     0.106032910     0.100000000     0.652650820 1 1 1
     0.129798900     0.100000000     0.678244970 1 1 1
     0.153564900     0.100000000     0.703839120 1 1 1
     0.177330900     0.100000000     0.729433270 1 1 1
     0.201096890     0.100000000     0.755027420 1 1 1
     0.224862890     0.100000000     0.780621570 1 1 1
     0.248628880     0.100000000     0.806215720 1 1 1
     0.272394880     0.100000000     0.831809870 1 1 1
     0.296160880     0.100000000     0.857404020 1 1 1
     0.319926870     0.100000000     0.882998170 1 1 1
     0.343692870     0.100000000     0.908592320 1 1 1
     0.367458870     0.100000000     0.934186470 1 1 1
     0.391224860     0.100000000     0.959780620 1 1 1
     0.414990860     0.100000000     0.985374770 1 1 1
     0.012797070     0.100000000     0.475319930 1 1 1
     0.036563070     0.100000000     0.500914080 1 1 1
     0.060329070     0.100000000     0.526508230 1 1 1
     0.084095060     0.100000000     0.552102380 1 1 1
     0.107861060     0.100000000     0.577696530 1 1 1
     0.131627060     0.100000000     0.603290680 1 1 1
     0.155393050     0.100000000     0.628884830 1 1 1
     0.179159050     0.100000000     0.654478980 1 1 1
     0.202925050     0.100000000     0.680073130 1 1 1
     0.226691040     0.100000000     0.705667280 1 1 1
     0.250457040     0.100000000     0.731261430 1 1 1
     0.274223030     0.100000000     0.756855580 1 1 1
     0.297989030     0.100000000     0.782449730 1 1 1
     0.321755030     0.100000000     0.808043880 1 1 1
     0.345521020     0.100000000     0.833638030 1 1 1
     0.369287020     0.100000000     0.859232180 1 1 1
     0.393053020     0.100000000     0.884826330 1 1 1
     0.416819010     0.100000000     0.910420480 1 1 1
     0.440585010     0.100000000     0.936014630 1 1 1
     0.464351010     0.100000000     0.961608780 1 1 1
     0.488117000     0.100000000     0.987202930 1 1 1
     0.014625230     0.100000000     0.400365630 1 1 1
     0.038391220     0.100000000     0.425959780 1 1 1
     0.062157220     0.100000000     0.451553930 1 1 1
     0.085923220     0.100000000     0.477148080 1 1 1
     0.109689210     0.100000000     0.502742230 1 1 1
     0.133455210     0.100000000     0.528336380 1 1 1
     0.157221210     0.100000000     0.553930530 1 1 1
     0.180987200     0.100000000     0.579524680 1 1 1
     0.204753200     0.100000000     0.605118830 1 1 1
     0.228519200     0.100000000     0.630712980 1 1 1
     0.252285190     0.100000000     0.656307130 1 1 1
     0.276051190     0.100000000     0.681901280 1 1 1
     0.299817180     0.100000000     0.707495430 1 1 1
     0.323583180     0.100000000     0.733089580 1 1 1
     0.347349180     0.100000000     0.758683730 1 1 1
     0.371115170     0.100000000     0.784277880 1 1 1
     0.394881170     0.100000000     0.809872030 1 1 1
     0.418647170     0.100000000     0.835466180 1 1 1
     0.442413160     0.100000000     0.861060330 1 1 1
     0.466179160     0.100000000     0.886654480 1 1 1
     0.489945160     0.100000000     0.912248630 1 1 1
     0.513711150     0.100000000     0.937842780 1 1 1
     0.537477150     0.100000000     0.963436930 1 1 1
     0.561243140     0.100000000     0.989031080 1 1 1
     0.016453380     0.100000000     0.325411330 1 1 1
     0.040219380     0.100000000     0.351005480 1 1 1
     0.063985370     0.100000000     0.376599630 1 1 1
     0.087751370     0.100000000     0.402193780 1 1 1
     0.111517370     0.100000000     0.427787930 1 1 1
     0.135283360     0.100000000     0.453382080 1 1 1
     0.159049360     0.100000000     0.478976230 1 1 1
     0.182815360     0.100000000     0.504570380 1 1 1
     0.206581350     0.100000000     0.530164530 1 1 1
     0.230347350     0.100000000     0.555758680 1 1 1
     0.254113350     0.100000000     0.581352830 1 1 1
     0.277879340     0.100000000     0.606946980 1 1 1
     0.301645340     0.100000000     0.632541130 1 1 1
     0.325411330     0.100000000     0.658135280 1 1 1
     0.349177330     0.100000000     0.683729430 1 1 1
     0.372943330     0.100000000     0.709323580 1 1 1
     0.396709320     0.100000000     0.734917730 1 1 1
     0.420475320     0.100000000     0.760511880 1 1 1
     0.444241320     0.100000000     0.786106030 1 1 1
     0.468007310     0.100000000     0.811700180 1 1 1
     0.491773310     0.100000000     0.837294330 1 1 1
     0.515539310     0.100000000     0.862888480 1 1 1
     0.539305300     0.100000000     0.888482630 1 1 1
     0.563071300     0.100000000     0.914076780 1 1 1
     0.586837290     0.100000000     0.939670930 1 1 1
     0.610603290     0.100000000     0.965265080 1 1 1
     0.634369290     0.100000000     0.990859230 1 1 1
     0.018281540     0.100000000     0.250457040 1 1 1
     0.042047530     0.100000000     0.276051190 1 1 1
     0.065813530     0.100000000     0.301645340 1 1 1
     0.089579520     0.100000000     0.327239490 1 1 1
     0.113345520     0.100000000     0.352833640 1 1 1
     0.137111520     0.100000000     0.378427790 1 1 1
     0.160877510     0.100000000     0.404021940 1 1 1
     0.184643510     0.100000000     0.429616090 1 1 1
     0.208409510     0.100000000     0.455210240 1 1 1
     0.232175500     0.100000000     0.480804390 1 1 1
     0.255941500     0.100000000     0.506398540 1 1 1
     0.279707500     0.100000000     0.531992690 1 1 1
     0.303473490     0.100000000     0.557586840 1 1 1
     0.327239490     0.100000000     0.583180990 1 1 1
     0.351005480     0.100000000     0.608775140 1 1 1
     0.374771480     0.100000000     0.634369290 1 1 1
     0.398537480     0.100000000     0.659963440 1 1 1
     0.422303470     0.100000000     0.685557590 1 1 1
     0.446069470     0.100000000     0.711151740 1 1 1
     0.469835470     0.100000000     0.736745890 1 1 1
     0.493601460     0.100000000     0.762340040 1 1 1
     0.517367460     0.100000000     0.787934190 1 1 1
     0.541133460     0.100000000     0.813528340 1 1 1
     0.564899450     0.100000000     0.839122490 1 1 1
     0.588665450     0.100000000     0.864716640 1 1 1
     0.612431440     0.100000000     0.890310790 1 1 1
     0.636197440     0.100000000     0.915904940 1 1 1
     0.659963440     0.100000000     0.941499090 1 1 1
     0.683729430     0.100000000     0.967093240 1 1 1
     0.707495430     0.100000000     0.992687390 1 1 1
     0.020109690     0.100000000     0.175502740 1 1 1
     0.043875690     0.100000000     0.201096890 1 1 1
     0.067641680     0.100000000     0.226691040 1 1 1
     0.091407680     0.100000000     0.252285190 1 1 1
     0.115173670     0.100000000     0.277879340 1 1 1
     0.138939670     0.100000000     0.303473490 1 1 1
     0.162705670     0.100000000     0.329067640 1 1 1
     0.186471660     0.100000000     0.354661790 1 1 1
     0.210237660     0.100000000     0.380255940 1 1 1
     0.234003660     0.100000000     0.405850090 1 1 1
     0.257769650     0.100000000     0.431444240 1 1 1
     0.281535650     0.100000000     0.457038390 1 1 1
     0.305301650     0.100000000     0.482632540 1 1 1
     0.329067640     0.100000000     0.508226690 1 1 1
     0.352833640     0.100000000     0.533820840 1 1 1
     0.376599630     0.100000000     0.559414990 1 1 1
     0.400365630     0.100000000     0.585009140 1 1 1
     0.424131630     0.100000000     0.610603290 1 1 1
     0.447897620     0.100000000     0.636197440 1 1 1
     0.471663620     0.100000000     0.661791590 1 1 1
     0.495429620     0.100000000     0.687385740 1 1 1
     0.519195610     0.100000000     0.712979890 1 1 1
     0.542961610     0.100000000     0.738574040 1 1 1
     0.566727610     0.100000000     0.764168190 1 1 1
     0.590493600     0.100000000     0.789762340 1 1 1
     0.614259600     0.100000000     0.815356490 1 1 1
     0.638025590     0.100000000     0.840950640 1 1 1
     0.661791590     0.100000000     0.866544790 1 1 1
     0.685557590     0.100000000     0.892138940 1 1 1
     0.709323580     0.100000000     0.917733090 1 1 1
     0.733089580     0.100000000     0.943327240 1 1 1
     0.756855580     0.100000000     0.968921390 1 1 1
     0.780621570     0.100000000     0.994515540 1 1 1
     0.021937840     0.100000000     0.100548450 1 1 1
     0.045703840     0.100000000     0.126142600 1 1 1
     0.069469840     0.100000000     0.151736750 1 1 1
     0.093235830     0.100000000     0.177330900 1 1 1
     0.117001830     0.100000000     0.202925050 1 1 1
     0.140767820     0.100000000     0.228519200 1 1 1
     0.164533820     0.100000000     0.254113350 1 1 1
     0.188299820     0.100000000     0.279707500 1 1 1
     0.212065810     0.100000000     0.305301650 1 1 1
     0.235831810     0.100000000     0.330895800 1 1 1
     0.259597810     0.100000000     0.356489950 1 1 1
     0.283363800     0.100000000     0.382084100 1 1 1
     0.307129800     0.100000000     0.407678240 1 1 1
     0.330895800     0.100000000     0.433272390 1 1 1
     0.354661790     0.100000000     0.458866540 1 1 1
     0.378427790     0.100000000     0.484460690 1 1 1
     0.402193780     0.100000000     0.510054840 1 1 1
     0.425959780     0.100000000     0.535648990 1 1 1
     0.449725780     0.100000000     0.561243140 1 1 1
     0.473491770     0.100000000     0.586837290 1 1 1
     0.497257770     0.100000000     0.612431440 1 1 1
     0.521023770     0.100000000     0.638025590 1 1 1
     0.544789760     0.100000000     0.663619740 1 1 1
     0.568555760     0.100000000     0.689213890 1 1 1
     0.592321760     0.100000000     0.714808040 1 1 1
     0.616087750     0.100000000     0.740402190 1 1 1
     0.639853750     0.100000000     0.765996340 1 1 1
     0.663619740     0.100000000     0.791590490 1 1 1
     0.687385740     0.100000000     0.817184640 1 1 1
     0.711151740     0.100000000     0.842778790 1 1 1
     0.734917730     0.100000000     0.868372940 1 1 1
     0.758683730     0.100000000     0.893967090 1 1 1
     0.782449730     0.100000000     0.919561240 1 1 1
     0.806215720     0.100000000     0.945155390 1 1 1
     0.829981720     0.100000000     0.970749540 1 1 1
     0.853747710     0.100000000     0.996343690 1 1 1
     0.000000000     0.100000000     0.000000000 1 1 1
     0.023766000     0.100000000     0.025594150 1 1 1
     0.047531990     0.100000000     0.051188300 1 1 1
     0.071297990     0.100000000     0.076782450 1 1 1
     0.095063990     0.100000000     0.102376600 1 1 1
     0.118829980     0.100000000     0.127970750 1 1 1
     0.142595980     0.100000000     0.153564900 1 1 1
     0.166361970     0.100000000     0.179159050 1 1 1
     0.190127970     0.100000000     0.204753200 1 1 1
     0.213893970     0.100000000     0.230347350 1 1 1
     0.237659960     0.100000000     0.255941500 1 1 1
     0.261425960     0.100000000     0.281535650 1 1 1
     0.285191960     0.100000000     0.307129800 1 1 1
     0.308957950     0.100000000     0.332723950 1 1 1
     0.332723950     0.100000000     0.358318100 1 1 1
     0.356489950     0.100000000     0.383912250 1 1 1
     0.380255940     0.100000000     0.409506400 1 1 1
     0.404021940     0.100000000     0.435100550 1 1 1
     0.427787930     0.100000000     0.460694700 1 1 1
     0.451553930     0.100000000     0.486288850 1 1 1
     0.475319930     0.100000000     0.511883000 1 1 1
     0.499085920     0.100000000     0.537477150 1 1 1
     0.522851920     0.100000000     0.563071300 1 1 1
     0.546617920     0.100000000     0.588665450 1 1 1
     0.570383910     0.100000000     0.614259600 1 1 1
     0.594149910     0.100000000     0.639853750 1 1 1
     0.617915900     0.100000000     0.665447900 1 1 1
     0.641681900     0.100000000     0.691042050 1 1 1
     0.665447900     0.100000000     0.716636200 1 1 1
     0.689213890     0.100000000     0.742230350 1 1 1
     0.712979890     0.100000000     0.767824500 1 1 1
     0.736745890     0.100000000     0.793418650 1 1 1
     0.760511880     0.100000000     0.819012800 1 1 1
     0.784277880     0.100000000     0.844606950 1 1 1
     0.808043880     0.100000000     0.870201100 1 1 1
     0.831809870     0.100000000     0.895795250 1 1 1
     0.855575870     0.100000000     0.921389400 1 1 1
     0.879341860     0.100000000     0.946983550 1 1 1
     0.903107860     0.100000000     0.972577700 1 1 1
     0.926873860     0.100000000     0.998171850 1 1 1
     0.073126140     0.100000000     0.001828150 1 1 1
     0.096892140     0.100000000     0.027422300 1 1 1
     0.120658140     0.100000000     0.053016450 1 1 1
     0.144424130     0.100000000     0.078610600 1 1 1
     0.168190130     0.100000000     0.104204750 1 1 1
     0.191956120     0.100000000     0.129798900 1 1 1
     0.215722120     0.100000000     0.155393050 1 1 1
     0.239488120     0.100000000     0.180987200 1 1 1
     0.263254110     0.100000000     0.206581350 1 1 1
     0.287020110     0.100000000     0.232175500 1 1 1
     0.310786110     0.100000000     0.257769650 1 1 1
     0.334552100     0.100000000     0.283363800 1 1 1
     0.358318100     0.100000000     0.308957950 1 1 1
     0.382084100     0.100000000     0.334552100 1 1 1
     0.405850090     0.100000000     0.360146250 1 1 1
     0.429616090     0.100000000     0.385740400 1 1 1
     0.453382080     0.100000000     0.411334550 1 1 1
     0.477148080     0.100000000     0.436928700 1 1 1
     0.500914080     0.100000000     0.462522850 1 1 1
     0.524680070     0.100000000     0.488117000 1 1 1
     0.548446070     0.100000000     0.513711150 1 1 1
     0.572212070     0.100000000     0.539305300 1 1 1
     0.595978060     0.100000000     0.564899450 1 1 1
     0.619744060     0.100000000     0.590493600 1 1 1
     0.643510050     0.100000000     0.616087750 1 1 1
     0.667276050     0.100000000     0.641681900 1 1 1
     0.691042050     0.100000000     0.667276050 1 1 1
     0.714808040     0.100000000     0.692870200 1 1 1
     0.738574040     0.100000000     0.718464350 1 1 1
     0.762340040     0.100000000     0.744058500 1 1 1
     0.786106030     0.100000000     0.769652650 1 1 1
     0.809872030     0.100000000     0.795246800 1 1 1
     0.833638030     0.100000000     0.820840950 1 1 1
     0.857404020     0.100000000     0.846435100 1 1 1
     0.881170020     0.100000000     0.872029250 1 1 1
     0.904936010     0.100000000     0.897623400 1 1 1
     0.928702010     0.100000000     0.923217550 1 1 1
     0.952468010     0.100000000     0.948811700 1 1 1
     0.976234000     0.100000000     0.974405850 1 1 1
     0.146252290     0.100000000     0.003656310 1 1 1
     0.170018280     0.100000000     0.029250460 1 1 1
     0.193784280     0.100000000     0.054844610 1 1 1
     0.217550270     0.100000000     0.080438760 1 1 1
     0.241316270     0.100000000     0.106032910 1 1 1
     0.265082270     0.100000000     0.131627060 1 1 1
     0.288848260     0.100000000     0.157221210 1 1 1
     0.312614260     0.100000000     0.182815360 1 1 1
     0.336380260     0.100000000     0.208409510 1 1 1
     0.360146250     0.100000000     0.234003660 1 1 1
     0.383912250     0.100000000     0.259597810 1 1 1
     0.407678240     0.100000000     0.285191960 1 1 1
     0.431444240     0.100000000     0.310786110 1 1 1
     0.455210240     0.100000000     0.336380260 1 1 1
     0.478976230     0.100000000     0.361974410 1 1 1
     0.502742230     0.100000000     0.387568560 1 1 1
     0.526508230     0.100000000     0.413162710 1 1 1
     0.550274220     0.100000000     0.438756860 1 1 1
     0.574040220     0.100000000     0.464351010 1 1 1
     0.597806220     0.100000000     0.489945160 1 1 1
     0.621572210     0.100000000     0.515539310 1 1 1
     0.645338210     0.100000000     0.541133460 1 1 1
     0.669104200     0.100000000     0.566727610 1 1 1
     0.692870200     0.100000000     0.592321760 1 1 1
     0.716636200     0.100000000     0.617915900 1 1 1
     0.740402190     0.100000000     0.643510050 1 1 1
     0.764168190     0.100000000     0.669104200 1 1 1
     0.787934190     0.100000000     0.694698350 1 1 1
     0.811700180     0.100000000     0.720292500 1 1 1
     0.835466180     0.100000000     0.745886650 1 1 1
     0.859232180     0.100000000     0.771480800 1 1 1
     0.882998170     0.100000000     0.797074950 1 1 1
     0.906764170     0.100000000     0.822669100 1 1 1
     0.930530160     0.100000000     0.848263250 1 1 1
     0.954296160     0.100000000     0.873857400 1 1 1
     0.978062160     0.100000000     0.899451550 1 1 1
     0.219378430     0.100000000     0.005484460 1 1 1
     0.243144420     0.100000000     0.031078610 1 1 1
     0.266910420     0.100000000     0.056672760 1 1 1
     0.290676420     0.100000000     0.082266910 1 1 1
     0.314442410     0.100000000     0.107861060 1 1 1
     0.338208410     0.100000000     0.133455210 1 1 1
     0.361974410     0.100000000     0.159049360 1 1 1
     0.385740400     0.100000000     0.184643510 1 1 1
     0.409506400     0.100000000     0.210237660 1 1 1
     0.433272390     0.100000000     0.235831810 1 1 1
     0.457038390     0.100000000     0.261425960 1 1 1
     0.480804390     0.100000000     0.287020110 1 1 1
     0.504570380     0.100000000     0.312614260 1 1 1
     0.528336380     0.100000000     0.338208410 1 1 1
     0.552102380     0.100000000     0.363802560 1 1 1
     0.575868370     0.100000000     0.389396710 1 1 1
     0.599634370     0.100000000     0.414990860 1 1 1
     0.623400370     0.100000000     0.440585010 1 1 1
     0.647166360     0.100000000     0.466179160 1 1 1
     0.670932360     0.100000000     0.491773310 1 1 1
     0.694698350     0.100000000     0.517367460 1 1 1
     0.718464350     0.100000000     0.542961610 1 1 1
     0.742230350     0.100000000     0.568555760 1 1 1
     0.765996340     0.100000000     0.594149910 1 1 1
     0.789762340     0.100000000     0.619744060 1 1 1
     0.813528340     0.100000000     0.645338210 1 1 1
     0.837294330     0.100000000     0.670932360 1 1 1
     0.861060330     0.100000000     0.696526510 1 1 1
     0.884826330     0.100000000     0.722120660 1 1 1
     0.908592320     0.100000000     0.747714810 1 1 1
     0.932358320     0.100000000     0.773308960 1 1 1
     0.956124310     0.100000000     0.798903110 1 1 1
     0.979890310     0.100000000     0.824497260 1 1 1
     0.292504570     0.100000000     0.007312610 1 1 1
     0.316270570     0.100000000     0.032906760 1 1 1
     0.340036560     0.100000000     0.058500910 1 1 1
     0.363802560     0.100000000     0.084095060 1 1 1
     0.387568560     0.100000000     0.109689210 1 1 1
     0.411334550     0.100000000     0.135283360 1 1 1
     0.435100550     0.100000000     0.160877510 1 1 1
     0.458866540     0.100000000     0.186471660 1 1 1
     0.482632540     0.100000000     0.212065810 1 1 1
     0.506398540     0.100000000     0.237659960 1 1 1
     0.530164530     0.100000000     0.263254110 1 1 1
     0.553930530     0.100000000     0.288848260 1 1 1
     0.577696530     0.100000000     0.314442410 1 1 1
     0.601462520     0.100000000     0.340036560 1 1 1
     0.625228520     0.100000000     0.365630710 1 1 1
     0.648994520     0.100000000     0.391224860 1 1 1
     0.672760510     0.100000000     0.416819010 1 1 1
     0.696526510     0.100000000     0.442413160 1 1 1
     0.720292500     0.100000000     0.468007310 1 1 1
     0.744058500     0.100000000     0.493601460 1 1 1
     0.767824500     0.100000000     0.519195610 1 1 1
     0.791590490     0.100000000     0.544789760 1 1 1
     0.815356490     0.100000000     0.570383910 1 1 1
     0.839122490     0.100000000     0.595978060 1 1 1
     0.862888480     0.100000000     0.621572210 1 1 1
     0.886654480     0.100000000     0.647166360 1 1 1
     0.910420480     0.100000000     0.672760510 1 1 1
     0.934186470     0.100000000     0.698354660 1 1 1
     0.957952470     0.100000000     0.723948810 1 1 1
     0.981718460     0.100000000     0.749542960 1 1 1
     0.365630710     0.100000000     0.009140770 1 1 1
     0.389396710     0.100000000     0.034734920 1 1 1
     0.413162710     0.100000000     0.060329070 1 1 1
     0.436928700     0.100000000     0.085923220 1 1 1
     0.460694700     0.100000000     0.111517370 1 1 1
     0.484460690     0.100000000     0.137111520 1 1 1
     0.508226690     0.100000000     0.162705670 1 1 1
     0.531992690     0.100000000     0.188299820 1 1 1
     0.555758680     0.100000000     0.213893970 1 1 1
     0.579524680     0.100000000     0.239488120 1 1 1
     0.603290680     0.100000000     0.265082270 1 1 1
     0.627056670     0.100000000     0.290676420 1 1 1
     0.650822670     0.100000000     0.316270570 1 1 1
     0.674588670     0.100000000     0.341864720 1 1 1
     0.698354660     0.100000000     0.367458870 1 1 1
     0.722120660     0.100000000     0.393053020 1 1 1
     0.745886650     0.100000000     0.418647170 1 1 1
     0.769652650     0.100000000     0.444241320 1 1 1
     0.793418650     0.100000000     0.469835470 1 1 1
     0.817184640     0.100000000     0.495429620 1 1 1
     0.840950640     0.100000000     0.521023770 1 1 1
     0.864716640     0.100000000     0.546617920 1 1 1
     0.888482630     0.100000000     0.572212070 1 1 1
     0.912248630     0.100000000     0.597806220 1 1 1
     0.936014630     0.100000000     0.623400370 1 1 1
     0.959780620     0.100000000     0.648994520 1 1 1
     0.983546620     0.100000000     0.674588670 1 1 1
     0.438756860     0.100000000     0.010968920 1 1 1
     0.462522850     0.100000000     0.036563070 1 1 1
     0.486288850     0.100000000     0.062157220 1 1 1
     0.510054840     0.100000000     0.087751370 1 1 1
     0.533820840     0.100000000     0.113345520 1 1 1
     0.557586840     0.100000000     0.138939670 1 1 1
     0.581352830     0.100000000     0.164533820 1 1 1
     0.605118830     0.100000000     0.190127970 1 1 1
     0.628884830     0.100000000     0.215722120 1 1 1
     0.652650820     0.100000000     0.241316270 1 1 1
     0.676416820     0.100000000     0.266910420 1 1 1
     0.700182820     0.100000000     0.292504570 1 1 1
     0.723948810     0.100000000     0.318098720 1 1 1
     0.747714810     0.100000000     0.343692870 1 1 1
     0.771480800     0.100000000     0.369287020 1 1 1
     0.795246800     0.100000000     0.394881170 1 1 1
     0.819012800     0.100000000     0.420475320 1 1 1
     0.842778790     0.100000000     0.446069470 1 1 1
     0.866544790     0.100000000     0.471663620 1 1 1
     0.890310790     0.100000000     0.497257770 1 1 1
     0.914076780     0.100000000     0.522851920 1 1 1
     0.937842780     0.100000000     0.548446070 1 1 1
     0.961608780     0.100000000     0.574040220 1 1 1
     0.985374770     0.100000000     0.599634370 1 1 1
     0.511883000     0.100000000     0.012797070 1 1 1
     0.535648990     0.100000000     0.038391220 1 1 1
     0.559414990     0.100000000     0.063985370 1 1 1
     0.583180990     0.100000000     0.089579520 1 1 1
     0.606946980     0.100000000     0.115173670 1 1 1
     0.630712980     0.100000000     0.140767820 1 1 1
     0.654478980     0.100000000     0.166361970 1 1 1
     0.678244970     0.100000000     0.191956120 1 1 1
     0.702010970     0.100000000     0.217550270 1 1 1
     0.725776970     0.100000000     0.243144420 1 1 1
     0.749542960     0.100000000     0.268738570 1 1 1
     0.773308960     0.100000000     0.294332720 1 1 1
     0.797074950     0.100000000     0.319926870 1 1 1
     0.820840950     0.100000000     0.345521020 1 1 1
     0.844606950     0.100000000     0.371115170 1 1 1
     0.868372940     0.100000000     0.396709320 1 1 1
     0.892138940     0.100000000     0.422303470 1 1 1
     0.915904940     0.100000000     0.447897620 1 1 1
     0.939670930     0.100000000     0.473491770 1 1 1
     0.963436930     0.100000000     0.499085920 1 1 1
     0.987202930     0.100000000     0.524680070 1 1 1
     0.585009140     0.100000000     0.014625230 1 1 1
     0.608775140     0.100000000     0.040219380 1 1 1
     0.632541130     0.100000000     0.065813530 1 1 1
     0.656307130     0.100000000     0.091407680 1 1 1
     0.680073130     0.100000000     0.117001830 1 1 1
     0.703839120     0.100000000     0.142595980 1 1 1
     0.727605120     0.100000000     0.168190130 1 1 1
     0.751371120     0.100000000     0.193784280 1 1 1
     0.775137110     0.100000000     0.219378430 1 1 1
     0.798903110     0.100000000     0.244972580 1 1 1
     0.822669100     0.100000000     0.270566730 1 1 1
     0.846435100     0.100000000     0.296160880 1 1 1
     0.870201100     0.100000000     0.321755030 1 1 1
     0.893967090     0.100000000     0.347349180 1 1 1
     0.917733090     0.100000000     0.372943330 1 1 1
     0.941499090     0.100000000     0.398537480 1 1 1
     0.965265080     0.100000000     0.424131630 1 1 1
     0.989031080     0.100000000     0.449725780 1 1 1
     0.658135280     0.100000000     0.016453380 1 1 1
     0.681901280     0.100000000     0.042047530 1 1 1
     0.705667280     0.100000000     0.067641680 1 1 1
     0.729433270     0.100000000     0.093235830 1 1 1
     0.753199270     0.100000000     0.118829980 1 1 1
     0.776965270     0.100000000     0.144424130 1 1 1
     0.800731260     0.100000000     0.170018280 1 1 1
     0.824497260     0.100000000     0.195612430 1 1 1
     0.848263250     0.100000000     0.221206580 1 1 1
     0.872029250     0.100000000     0.246800730 1 1 1
     0.895795250     0.100000000     0.272394880 1 1 1
     0.919561240     0.100000000     0.297989030 1 1 1
     0.943327240     0.100000000     0.323583180 1 1 1
     0.967093240     0.100000000     0.349177330 1 1 1
     0.990859230     0.100000000     0.374771480 1 1 1
     0.731261430     0.100000000     0.018281540 1 1 1
     0.755027420     0.100000000     0.043875690 1 1 1
     0.778793420     0.100000000     0.069469840 1 1 1
     0.802559410     0.100000000     0.095063990 1 1 1
     0.826325410     0.100000000     0.120658140 1 1 1
     0.850091410     0.100000000     0.146252290 1 1 1
     0.873857400     0.100000000     0.171846440 1 1 1
     0.897623400     0.100000000     0.197440590 1 1 1
     0.921389400     0.100000000     0.223034730 1 1 1
     0.945155390     0.100000000     0.248628880 1 1 1
     0.968921390     0.100000000     0.274223030 1 1 1
     0.992687390     0.100000000     0.299817180 1 1 1
     0.804387570     0.100000000     0.020109690 1 1 1
     0.828153560     0.100000000     0.045703840 1 1 1
     0.851919560     0.100000000     0.071297990 1 1 1
     0.875685560     0.100000000     0.096892140 1 1 1
     0.899451550     0.100000000     0.122486290 1 1 1
     0.923217550     0.100000000     0.148080440 1 1 1
     0.946983550     0.100000000     0.173674590 1 1 1
     0.970749540     0.100000000     0.199268740 1 1 1
     0.994515540     0.100000000     0.224862890 1 1 1