ATOMIC_SPECIES
C 6.000 /mnt/C_ONCV_PBE-1.0.upf

NUMERICAL_ORBITAL
/mnt/C_gga_8au_100Ry_2s2p1d.orb

LATTICE_CONSTANT
1.889716

LATTICE_VECTORS
       9.83800000       4.25997896       0.00000000
       1.22975000       10.64994740       0.00000000
       0.00000000       0.00000000       30.00000000

ATOMIC_POSITIONS
Direct

C
0.0
76
     0.05263158     0.57894737     0.10000000 1 1 1
     0.15789474     0.73684211     0.10000000 1 1 1
     0.26315789     0.89473684     0.10000000 1 1 1
     0.00000000     0.00000000     0.10000000 1 1 1
     0.10526316     0.15789474     0.10000000 1 1 1
     0.21052632     0.31578947     0.10000000 1 1 1
     0.31578947     0.47368421     0.10000000 1 1 1
     0.42105263     0.63157895     0.10000000 1 1 1
     0.52631579     0.78947368     0.10000000 1 1 1
     0.63157895     0.94736842     0.10000000 1 1 1
     0.36842105     0.05263158     0.10000000 1 1 1
     0.47368421     0.21052632     0.10000000 1 1 1
     0.57894737     0.36842105     0.10000000 1 1 1
     0.68421053     0.52631579     0.10000000 1 1 1
     0.78947368     0.68421053     0.10000000 1 1 1
     0.89473684     0.84210526     0.10000000 1 1 1
     0.73684211     0.10526316     0.10000000 1 1 1
     0.84210526     0.26315789     0.10000000 1 1 1
     0.94736842     0.42105263     0.10000000 1 1 1
     0.29824562     0.61403508     0.10000000 1 1 1
     0.40350877     0.77192982     0.10000000 1 1 1
     0.50877193     0.92982455     0.10000000 1 1 1
     0.24561404     0.03508771     0.10000000 1 1 1
     0.35087719     0.19298245     0.10000000 1 1 1
     0.45614035     0.35087718     0.10000000 1 1 1
     0.56140351     0.50877192     0.10000000 1 1 1
     0.66666667     0.66666666     0.10000000 1 1 1
     0.77192983     0.82456140     0.10000000 1 1 1
     0.87719298     0.98245613     0.10000000 1 1 1
     0.61403509     0.08771929     0.10000000 1 1 1
     0.71929825     0.24561403     0.10000000 1 1 1
     0.82456140     0.40350876     0.10000000 1 1 1
     0.92982456     0.56140350     0.10000000 1 1 1
     1.03508772     0.71929824     0.10000000 1 1 1
     1.14035088     0.87719297     0.10000000 1 1 1
     0.98245614     0.14035087     0.10000000 1 1 1
     1.08771930     0.29824561     0.10000000 1 1 1
     1.19298246     0.45614034     0.10000000 1 1 1
     0.10526316     0.73684211     0.21361333 1 1 1
     0.26315789     0.84210526     0.21361333 1 1 1
     0.42105263     0.94736842     0.21361333 1 1 1
     0.05263158     0.36842105     0.21361333 1 1 1
     0.21052632     0.47368421     0.21361333 1 1 1
     0.36842105     0.57894737     0.21361333 1 1 1
     0.52631579     0.68421053     0.21361333 1 1 1
     0.68421053     0.78947368     0.21361333 1 1 1
     0.84210526     0.89473684     0.21361333 1 1 1
     0.00000000     0.00000000     0.21361333 1 1 1
     0.15789474     0.10526316     0.21361333 1 1 1
     0.31578947     0.21052632     0.21361333 1 1 1
     0.47368421     0.31578947     0.21361333 1 1 1
     0.63157895     0.42105263     0.21361333 1 1 1
     0.78947368     0.52631579     0.21361333 1 1 1
     0.94736842     0.63157895     0.21361333 1 1 1
     0.57894737     0.05263158     0.21361333 1 1 1
     0.73684211     0.15789474     0.21361333 1 1 1
     0.89473684     0.26315789     0.21361333 1 1 1
     0.38596491     0.70175438     0.21361333 1 1 1
     0.54385965     0.80701754     0.21361333 1 1 1
     0.70175439     0.91228069     0.21361333 1 1 1
     0.33333333     0.33333333     0.21361333 1 1 1
     0.49122807     0.43859648     0.21361333 1 1 1
     0.64912281     0.54385964     0.21361333 1 1 1
     0.80701754     0.64912280     0.21361333 1 1 1
     0.96491228     0.75438596     0.21361333 1 1 1
     1.12280702     0.85964912     0.21361333 1 1 1
     0.28070175     -0.03508773     0.21361333 1 1 1
     0.43859649     0.07017543     0.21361333 1 1 1
     0.59649123     0.17543859     0.21361333 1 1 1
     0.75438596     0.28070175     0.21361333 1 1 1
     0.91228070     0.38596490     0.21361333 1 1 1
     1.07017544     0.49122806     0.21361333 1 1 1
     1.22807017     0.59649122     0.21361333 1 1 1
     0.85964912     0.01754385     0.21361333 1 1 1
     1.01754386     0.12280701     0.21361333 1 1 1
     1.17543860     0.22807017     0.21361333 1 1 1
