ATOMIC_SPECIES
C 6.000 ./C_ONCV_PBE-1.0.upf

NUMERICAL_ORBITAL
./C_gga_8au_100Ry_2s2p1d.orb

LATTICE_CONSTANT
1.889716

LATTICE_VECTORS
       76.2444996070       42.5997893904       0.0000000000
       -14.6326956201       26.1893913425       0.0000000000
       38.1222498035       21.2998946952       75.6371227132

ATOMIC_POSITIONS
Direct

C
0.0
5044
     0.000793020     0.100000000     0.950832670 1 1 1
     0.016653450     0.100000000     0.967486120 1 1 1
     0.032513880     0.100000000     0.984139570 1 1 1
     0.001586040     0.100000000     0.901665340 1 1 1
     0.017446470     0.100000000     0.918318790 1 1 1
     0.033306900     0.100000000     0.934972240 1 1 1
     0.049167330     0.100000000     0.951625690 1 1 1
     0.065027760     0.100000000     0.968279140 1 1 1
     0.080888180     0.100000000     0.984932590 1 1 1
     0.002379060     0.100000000     0.852498020 1 1 1
     0.018239490     0.100000000     0.869151470 1 1 1
     0.034099920     0.100000000     0.885804920 1 1 1
     0.049960350     0.100000000     0.902458370 1 1 1
     0.065820780     0.100000000     0.919111820 1 1 1
     0.081681210     0.100000000     0.935765270 1 1 1
     0.097541630     0.100000000     0.952418720 1 1 1
     0.113402060     0.100000000     0.969072160 1 1 1
     0.129262490     0.100000000     0.985725610 1 1 1
     0.003172090     0.100000000     0.803330690 1 1 1
     0.019032510     0.100000000     0.819984140 1 1 1
     0.034892940     0.100000000     0.836637590 1 1 1
     0.050753370     0.100000000     0.853291040 1 1 1
     0.066613800     0.100000000     0.869944490 1 1 1
     0.082474230     0.100000000     0.886597940 1 1 1
     0.098334660     0.100000000     0.903251390 1 1 1
     0.114195080     0.100000000     0.919904840 1 1 1
     0.130055510     0.100000000     0.936558290 1 1 1
     0.145915940     0.100000000     0.953211740 1 1 1
     0.161776370     0.100000000     0.969865190 1 1 1
     0.177636800     0.100000000     0.986518640 1 1 1
     0.003965110     0.100000000     0.754163360 1 1 1
     0.019825540     0.100000000     0.770816810 1 1 1
     0.035685960     0.100000000     0.787470260 1 1 1
     0.051546390     0.100000000     0.804123710 1 1 1
     0.067406820     0.100000000     0.820777160 1 1 1
     0.083267250     0.100000000     0.837430610 1 1 1
     0.099127680     0.100000000     0.854084060 1 1 1
     0.114988100     0.100000000     0.870737510 1 1 1
     0.130848530     0.100000000     0.887390960 1 1 1
     0.146708960     0.100000000     0.904044410 1 1 1
     0.162569390     0.100000000     0.920697860 1 1 1
     0.178429820     0.100000000     0.937351310 1 1 1
     0.194290250     0.100000000     0.954004760 1 1 1
     0.210150670     0.100000000     0.970658210 1 1 1
     0.226011100     0.100000000     0.987311660 1 1 1
     0.004758130     0.100000000     0.704996030 1 1 1
     0.020618560     0.100000000     0.721649480 1 1 1
     0.036478980     0.100000000     0.738302930 1 1 1
     0.052339410     0.100000000     0.754956380 1 1 1
     0.068199840     0.100000000     0.771609830 1 1 1
     0.084060270     0.100000000     0.788263280 1 1 1
     0.099920700     0.100000000     0.804916730 1 1 1
     0.115781130     0.100000000     0.821570180 1 1 1
     0.131641550     0.100000000     0.838223630 1 1 1
     0.147501980     0.100000000     0.854877080 1 1 1
     0.163362410     0.100000000     0.871530530 1 1 1
     0.179222840     0.100000000     0.888183980 1 1 1
     0.195083270     0.100000000     0.904837430 1 1 1
     0.210943700     0.100000000     0.921490880 1 1 1
     0.226804120     0.100000000     0.938144330 1 1 1
     0.242664550     0.100000000     0.954797780 1 1 1
     0.258524980     0.100000000     0.971451230 1 1 1
     0.274385410     0.100000000     0.988104680 1 1 1
     0.005551150     0.100000000     0.655828710 1 1 1
     0.021411580     0.100000000     0.672482160 1 1 1
     0.037272010     0.100000000     0.689135610 1 1 1
     0.053132430     0.100000000     0.705789060 1 1 1
     0.068992860     0.100000000     0.722442510 1 1 1
     0.084853290     0.100000000     0.739095960 1 1 1
     0.100713720     0.100000000     0.755749410 1 1 1
     0.116574150     0.100000000     0.772402850 1 1 1
     0.132434580     0.100000000     0.789056300 1 1 1
     0.148295000     0.100000000     0.805709750 1 1 1
     0.164155430     0.100000000     0.822363200 1 1 1
     0.180015860     0.100000000     0.839016650 1 1 1
     0.195876290     0.100000000     0.855670100 1 1 1
     0.211736720     0.100000000     0.872323550 1 1 1
     0.227597150     0.100000000     0.888977000 1 1 1
     0.243457570     0.100000000     0.905630450 1 1 1
     0.259318000     0.100000000     0.922283900 1 1 1
     0.275178430     0.100000000     0.938937350 1 1 1
     0.291038860     0.100000000     0.955590800 1 1 1
     0.306899290     0.100000000     0.972244250 1 1 1
     0.322759710     0.100000000     0.988897700 1 1 1
     0.006344170     0.100000000     0.606661380 1 1 1
     0.022204600     0.100000000     0.623314830 1 1 1
     0.038065030     0.100000000     0.639968280 1 1 1
     0.053925460     0.100000000     0.656621730 1 1 1
     0.069785880     0.100000000     0.673275180 1 1 1
     0.085646310     0.100000000     0.689928630 1 1 1
     0.101506740     0.100000000     0.706582080 1 1 1
     0.117367170     0.100000000     0.723235530 1 1 1
     0.133227600     0.100000000     0.739888980 1 1 1
     0.149088030     0.100000000     0.756542430 1 1 1
     0.164948450     0.100000000     0.773195880 1 1 1
     0.180808880     0.100000000     0.789849330 1 1 1
     0.196669310     0.100000000     0.806502780 1 1 1
     0.212529740     0.100000000     0.823156230 1 1 1
     0.228390170     0.100000000     0.839809670 1 1 1
     0.244250590     0.100000000     0.856463120 1 1 1
     0.260111020     0.100000000     0.873116570 1 1 1
     0.275971450     0.100000000     0.889770020 1 1 1
     0.291831880     0.100000000     0.906423470 1 1 1
     0.307692310     0.100000000     0.923076920 1 1 1
     0.323552740     0.100000000     0.939730370 1 1 1
     0.339413160     0.100000000     0.956383820 1 1 1
     0.355273590     0.100000000     0.973037270 1 1 1
     0.371134020     0.100000000     0.989690720 1 1 1
     0.007137190     0.100000000     0.557494050 1 1 1
     0.022997620     0.100000000     0.574147500 1 1 1
     0.038858050     0.100000000     0.590800950 1 1 1
     0.054718480     0.100000000     0.607454400 1 1 1
     0.070578910     0.100000000     0.624107850 1 1 1
     0.086439330     0.100000000     0.640761300 1 1 1
     0.102299760     0.100000000     0.657414750 1 1 1
     0.118160190     0.100000000     0.674068200 1 1 1
     0.134020620     0.100000000     0.690721650 1 1 1
     0.149881050     0.100000000     0.707375100 1 1 1
     0.165741480     0.100000000     0.724028550 1 1 1
     0.181601900     0.100000000     0.740682000 1 1 1
     0.197462330     0.100000000     0.757335450 1 1 1
     0.213322760     0.100000000     0.773988900 1 1 1
     0.229183190     0.100000000     0.790642350 1 1 1
     0.245043620     0.100000000     0.807295800 1 1 1
     0.260904040     0.100000000     0.823949250 1 1 1
     0.276764470     0.100000000     0.840602700 1 1 1
     0.292624900     0.100000000     0.857256150 1 1 1
     0.308485330     0.100000000     0.873909600 1 1 1
     0.324345760     0.100000000     0.890563050 1 1 1
     0.340206190     0.100000000     0.907216490 1 1 1
     0.356066610     0.100000000     0.923869940 1 1 1
     0.371927040     0.100000000     0.940523390 1 1 1
     0.387787470     0.100000000     0.957176840 1 1 1
     0.403647900     0.100000000     0.973830290 1 1 1
     0.419508330     0.100000000     0.990483740 1 1 1
     0.007930210     0.100000000     0.508326720 1 1 1
     0.023790640     0.100000000     0.524980170 1 1 1
     0.039651070     0.100000000     0.541633620 1 1 1
     0.055511500     0.100000000     0.558287070 1 1 1
     0.071371930     0.100000000     0.574940520 1 1 1
     0.087232360     0.100000000     0.591593970 1 1 1
     0.103092780     0.100000000     0.608247420 1 1 1
     0.118953210     0.100000000     0.624900870 1 1 1
     0.134813640     0.100000000     0.641554320 1 1 1
     0.150674070     0.100000000     0.658207770 1 1 1
     0.166534500     0.100000000     0.674861220 1 1 1
     0.182394920     0.100000000     0.691514670 1 1 1
     0.198255350     0.100000000     0.708168120 1 1 1
     0.214115780     0.100000000     0.724821570 1 1 1
     0.229976210     0.100000000     0.741475020 1 1 1
     0.245836640     0.100000000     0.758128470 1 1 1
     0.261697070     0.100000000     0.774781920 1 1 1
     0.277557490     0.100000000     0.791435370 1 1 1
     0.293417920     0.100000000     0.808088820 1 1 1
     0.309278350     0.100000000     0.824742270 1 1 1
     0.325138780     0.100000000     0.841395720 1 1 1
     0.340999210     0.100000000     0.858049170 1 1 1
     0.356859640     0.100000000     0.874702620 1 1 1
     0.372720060     0.100000000     0.891356070 1 1 1
     0.388580490     0.100000000     0.908009520 1 1 1
     0.404440920     0.100000000     0.924662970 1 1 1
     0.420301350     0.100000000     0.941316420 1 1 1
     0.436161780     0.100000000     0.957969870 1 1 1
     0.452022200     0.100000000     0.974623310 1 1 1
     0.467882630     0.100000000     0.991276760 1 1 1
     0.008723240     0.100000000     0.459159400 1 1 1
     0.024583660     0.100000000     0.475812850 1 1 1
     0.040444090     0.100000000     0.492466300 1 1 1
     0.056304520     0.100000000     0.509119750 1 1 1
     0.072164950     0.100000000     0.525773200 1 1 1
     0.088025380     0.100000000     0.542426650 1 1 1
     0.103885800     0.100000000     0.559080100 1 1 1
     0.119746230     0.100000000     0.575733540 1 1 1
     0.135606660     0.100000000     0.592386990 1 1 1
     0.151467090     0.100000000     0.609040440 1 1 1
     0.167327520     0.100000000     0.625693890 1 1 1
     0.183187950     0.100000000     0.642347340 1 1 1
     0.199048370     0.100000000     0.659000790 1 1 1
     0.214908800     0.100000000     0.675654240 1 1 1
     0.230769230     0.100000000     0.692307690 1 1 1
     0.246629660     0.100000000     0.708961140 1 1 1
     0.262490090     0.100000000     0.725614590 1 1 1
     0.278350520     0.100000000     0.742268040 1 1 1
     0.294210940     0.100000000     0.758921490 1 1 1
     0.310071370     0.100000000     0.775574940 1 1 1
     0.325931800     0.100000000     0.792228390 1 1 1
     0.341792230     0.100000000     0.808881840 1 1 1
     0.357652660     0.100000000     0.825535290 1 1 1
     0.373513080     0.100000000     0.842188740 1 1 1
     0.389373510     0.100000000     0.858842190 1 1 1
     0.405233940     0.100000000     0.875495640 1 1 1
     0.421094370     0.100000000     0.892149090 1 1 1
     0.436954800     0.100000000     0.908802540 1 1 1
     0.452815230     0.100000000     0.925455990 1 1 1
     0.468675650     0.100000000     0.942109440 1 1 1
     0.484536080     0.100000000     0.958762890 1 1 1
     0.500396510     0.100000000     0.975416340 1 1 1
     0.516256940     0.100000000     0.992069790 1 1 1
     0.009516260     0.100000000     0.409992070 1 1 1
     0.025376690     0.100000000     0.426645520 1 1 1
     0.041237110     0.100000000     0.443298970 1 1 1
     0.057097540     0.100000000     0.459952420 1 1 1
     0.072957970     0.100000000     0.476605870 1 1 1
     0.088818400     0.100000000     0.493259320 1 1 1
     0.104678830     0.100000000     0.509912770 1 1 1
     0.120539250     0.100000000     0.526566220 1 1 1
     0.136399680     0.100000000     0.543219670 1 1 1
     0.152260110     0.100000000     0.559873120 1 1 1
     0.168120540     0.100000000     0.576526570 1 1 1
     0.183980970     0.100000000     0.593180020 1 1 1
     0.199841400     0.100000000     0.609833470 1 1 1
     0.215701820     0.100000000     0.626486920 1 1 1
     0.231562250     0.100000000     0.643140360 1 1 1
     0.247422680     0.100000000     0.659793810 1 1 1
     0.263283110     0.100000000     0.676447260 1 1 1
     0.279143540     0.100000000     0.693100710 1 1 1
     0.295003970     0.100000000     0.709754160 1 1 1
     0.310864390     0.100000000     0.726407610 1 1 1
     0.326724820     0.100000000     0.743061060 1 1 1
     0.342585250     0.100000000     0.759714510 1 1 1
     0.358445680     0.100000000     0.776367960 1 1 1
     0.374306110     0.100000000     0.793021410 1 1 1
     0.390166530     0.100000000     0.809674860 1 1 1
     0.406026960     0.100000000     0.826328310 1 1 1
     0.421887390     0.100000000     0.842981760 1 1 1
     0.437747820     0.100000000     0.859635210 1 1 1
     0.453608250     0.100000000     0.876288660 1 1 1
     0.469468680     0.100000000     0.892942110 1 1 1
     0.485329100     0.100000000     0.909595560 1 1 1
     0.501189530     0.100000000     0.926249010 1 1 1
     0.517049960     0.100000000     0.942902460 1 1 1
     0.532910390     0.100000000     0.959555910 1 1 1
     0.548770820     0.100000000     0.976209360 1 1 1
     0.564631250     0.100000000     0.992862810 1 1 1
     0.010309280     0.100000000     0.360824740 1 1 1
     0.026169710     0.100000000     0.377478190 1 1 1
     0.042030130     0.100000000     0.394131640 1 1 1
     0.057890560     0.100000000     0.410785090 1 1 1
     0.073750990     0.100000000     0.427438540 1 1 1
     0.089611420     0.100000000     0.444091990 1 1 1
     0.105471850     0.100000000     0.460745440 1 1 1
     0.121332280     0.100000000     0.477398890 1 1 1
     0.137192700     0.100000000     0.494052340 1 1 1
     0.153053130     0.100000000     0.510705790 1 1 1
     0.168913560     0.100000000     0.527359240 1 1 1
     0.184773990     0.100000000     0.544012690 1 1 1
     0.200634420     0.100000000     0.560666140 1 1 1
     0.216494850     0.100000000     0.577319590 1 1 1
     0.232355270     0.100000000     0.593973040 1 1 1
     0.248215700     0.100000000     0.610626490 1 1 1
     0.264076130     0.100000000     0.627279940 1 1 1
     0.279936560     0.100000000     0.643933390 1 1 1
     0.295796990     0.100000000     0.660586840 1 1 1
     0.311657410     0.100000000     0.677240290 1 1 1
     0.327517840     0.100000000     0.693893740 1 1 1
     0.343378270     0.100000000     0.710547180 1 1 1
     0.359238700     0.100000000     0.727200630 1 1 1
     0.375099130     0.100000000     0.743854080 1 1 1
     0.390959560     0.100000000     0.760507530 1 1 1
     0.406819980     0.100000000     0.777160980 1 1 1
     0.422680410     0.100000000     0.793814430 1 1 1
     0.438540840     0.100000000     0.810467880 1 1 1
     0.454401270     0.100000000     0.827121330 1 1 1
     0.470261700     0.100000000     0.843774780 1 1 1
     0.486122130     0.100000000     0.860428230 1 1 1
     0.501982550     0.100000000     0.877081680 1 1 1
     0.517842980     0.100000000     0.893735130 1 1 1
     0.533703410     0.100000000     0.910388580 1 1 1
     0.549563840     0.100000000     0.927042030 1 1 1
     0.565424270     0.100000000     0.943695480 1 1 1
     0.581284690     0.100000000     0.960348930 1 1 1
     0.597145120     0.100000000     0.977002380 1 1 1
     0.613005550     0.100000000     0.993655830 1 1 1
     0.011102300     0.100000000     0.311657410 1 1 1
     0.026962730     0.100000000     0.328310860 1 1 1
     0.042823160     0.100000000     0.344964310 1 1 1
     0.058683580     0.100000000     0.361617760 1 1 1
     0.074544010     0.100000000     0.378271210 1 1 1
     0.090404440     0.100000000     0.394924660 1 1 1
     0.106264870     0.100000000     0.411578110 1 1 1
     0.122125300     0.100000000     0.428231560 1 1 1
     0.137985730     0.100000000     0.444885010 1 1 1
     0.153846150     0.100000000     0.461538460 1 1 1
     0.169706580     0.100000000     0.478191910 1 1 1
     0.185567010     0.100000000     0.494845360 1 1 1
     0.201427440     0.100000000     0.511498810 1 1 1
     0.217287870     0.100000000     0.528152260 1 1 1
     0.233148300     0.100000000     0.544805710 1 1 1
     0.249008720     0.100000000     0.561459160 1 1 1
     0.264869150     0.100000000     0.578112610 1 1 1
     0.280729580     0.100000000     0.594766060 1 1 1
     0.296590010     0.100000000     0.611419510 1 1 1
     0.312450440     0.100000000     0.628072960 1 1 1
     0.328310860     0.100000000     0.644726410 1 1 1
     0.344171290     0.100000000     0.661379860 1 1 1
     0.360031720     0.100000000     0.678033310 1 1 1
     0.375892150     0.100000000     0.694686760 1 1 1
     0.391752580     0.100000000     0.711340210 1 1 1
     0.407613010     0.100000000     0.727993660 1 1 1
     0.423473430     0.100000000     0.744647110 1 1 1
     0.439333860     0.100000000     0.761300560 1 1 1
     0.455194290     0.100000000     0.777954000 1 1 1
     0.471054720     0.100000000     0.794607450 1 1 1
     0.486915150     0.100000000     0.811260900 1 1 1
     0.502775570     0.100000000     0.827914350 1 1 1
     0.518636000     0.100000000     0.844567800 1 1 1
     0.534496430     0.100000000     0.861221250 1 1 1
     0.550356860     0.100000000     0.877874700 1 1 1
     0.566217290     0.100000000     0.894528150 1 1 1
     0.582077720     0.100000000     0.911181600 1 1 1
     0.597938140     0.100000000     0.927835050 1 1 1
     0.613798570     0.100000000     0.944488500 1 1 1
     0.629659000     0.100000000     0.961141950 1 1 1
     0.645519430     0.100000000     0.977795400 1 1 1
     0.661379860     0.100000000     0.994448850 1 1 1
     0.011895320     0.100000000     0.262490090 1 1 1
     0.027755750     0.100000000     0.279143540 1 1 1
     0.043616180     0.100000000     0.295796990 1 1 1
     0.059476610     0.100000000     0.312450440 1 1 1
     0.075337030     0.100000000     0.329103890 1 1 1
     0.091197460     0.100000000     0.345757340 1 1 1
     0.107057890     0.100000000     0.362410790 1 1 1
     0.122918320     0.100000000     0.379064230 1 1 1
     0.138778750     0.100000000     0.395717680 1 1 1
     0.154639180     0.100000000     0.412371130 1 1 1
     0.170499600     0.100000000     0.429024580 1 1 1
     0.186360030     0.100000000     0.445678030 1 1 1
     0.202220460     0.100000000     0.462331480 1 1 1
     0.218080890     0.100000000     0.478984930 1 1 1
     0.233941320     0.100000000     0.495638380 1 1 1
     0.249801740     0.100000000     0.512291830 1 1 1
     0.265662170     0.100000000     0.528945280 1 1 1
     0.281522600     0.100000000     0.545598730 1 1 1
     0.297383030     0.100000000     0.562252180 1 1 1
     0.313243460     0.100000000     0.578905630 1 1 1
     0.329103890     0.100000000     0.595559080 1 1 1
     0.344964310     0.100000000     0.612212530 1 1 1
     0.360824740     0.100000000     0.628865980 1 1 1
     0.376685170     0.100000000     0.645519430 1 1 1
     0.392545600     0.100000000     0.662172880 1 1 1
     0.408406030     0.100000000     0.678826330 1 1 1
     0.424266460     0.100000000     0.695479780 1 1 1
     0.440126880     0.100000000     0.712133230 1 1 1
     0.455987310     0.100000000     0.728786680 1 1 1
     0.471847740     0.100000000     0.745440130 1 1 1
     0.487708170     0.100000000     0.762093580 1 1 1
     0.503568600     0.100000000     0.778747030 1 1 1
     0.519429020     0.100000000     0.795400480 1 1 1
     0.535289450     0.100000000     0.812053930 1 1 1
     0.551149880     0.100000000     0.828707380 1 1 1
     0.567010310     0.100000000     0.845360820 1 1 1
     0.582870740     0.100000000     0.862014270 1 1 1
     0.598731170     0.100000000     0.878667720 1 1 1
     0.614591590     0.100000000     0.895321170 1 1 1
     0.630452020     0.100000000     0.911974620 1 1 1
     0.646312450     0.100000000     0.928628070 1 1 1
     0.662172880     0.100000000     0.945281520 1 1 1
     0.678033310     0.100000000     0.961934970 1 1 1
     0.693893740     0.100000000     0.978588420 1 1 1
     0.709754160     0.100000000     0.995241870 1 1 1
     0.012688340     0.100000000     0.213322760 1 1 1
     0.028548770     0.100000000     0.229976210 1 1 1
     0.044409200     0.100000000     0.246629660 1 1 1
     0.060269630     0.100000000     0.263283110 1 1 1
     0.076130060     0.100000000     0.279936560 1 1 1
     0.091990480     0.100000000     0.296590010 1 1 1
     0.107850910     0.100000000     0.313243460 1 1 1
     0.123711340     0.100000000     0.329896910 1 1 1
     0.139571770     0.100000000     0.346550360 1 1 1
     0.155432200     0.100000000     0.363203810 1 1 1
     0.171292620     0.100000000     0.379857260 1 1 1
     0.187153050     0.100000000     0.396510710 1 1 1
     0.203013480     0.100000000     0.413164160 1 1 1
     0.218873910     0.100000000     0.429817610 1 1 1
     0.234734340     0.100000000     0.446471050 1 1 1
     0.250594770     0.100000000     0.463124500 1 1 1
     0.266455190     0.100000000     0.479777950 1 1 1
     0.282315620     0.100000000     0.496431400 1 1 1
     0.298176050     0.100000000     0.513084850 1 1 1
     0.314036480     0.100000000     0.529738300 1 1 1
     0.329896910     0.100000000     0.546391750 1 1 1
     0.345757340     0.100000000     0.563045200 1 1 1
     0.361617760     0.100000000     0.579698650 1 1 1
     0.377478190     0.100000000     0.596352100 1 1 1
     0.393338620     0.100000000     0.613005550 1 1 1
     0.409199050     0.100000000     0.629659000 1 1 1
     0.425059480     0.100000000     0.646312450 1 1 1
     0.440919900     0.100000000     0.662965900 1 1 1
     0.456780330     0.100000000     0.679619350 1 1 1
     0.472640760     0.100000000     0.696272800 1 1 1
     0.488501190     0.100000000     0.712926250 1 1 1
     0.504361620     0.100000000     0.729579700 1 1 1
     0.520222050     0.100000000     0.746233150 1 1 1
     0.536082470     0.100000000     0.762886600 1 1 1
     0.551942900     0.100000000     0.779540050 1 1 1
     0.567803330     0.100000000     0.796193500 1 1 1
     0.583663760     0.100000000     0.812846950 1 1 1
     0.599524190     0.100000000     0.829500400 1 1 1
     0.615384620     0.100000000     0.846153850 1 1 1
     0.631245040     0.100000000     0.862807300 1 1 1
     0.647105470     0.100000000     0.879460750 1 1 1
     0.662965900     0.100000000     0.896114200 1 1 1
     0.678826330     0.100000000     0.912767640 1 1 1
     0.694686760     0.100000000     0.929421090 1 1 1
     0.710547180     0.100000000     0.946074540 1 1 1
     0.726407610     0.100000000     0.962727990 1 1 1
     0.742268040     0.100000000     0.979381440 1 1 1
     0.758128470     0.100000000     0.996034890 1 1 1
     0.013481360     0.100000000     0.164155430 1 1 1
     0.029341790     0.100000000     0.180808880 1 1 1
     0.045202220     0.100000000     0.197462330 1 1 1
     0.061062650     0.100000000     0.214115780 1 1 1
     0.076923080     0.100000000     0.230769230 1 1 1
     0.092783510     0.100000000     0.247422680 1 1 1
     0.108643930     0.100000000     0.264076130 1 1 1
     0.124504360     0.100000000     0.280729580 1 1 1
     0.140364790     0.100000000     0.297383030 1 1 1
     0.156225220     0.100000000     0.314036480 1 1 1
     0.172085650     0.100000000     0.330689930 1 1 1
     0.187946070     0.100000000     0.347343380 1 1 1
     0.203806500     0.100000000     0.363996830 1 1 1
     0.219666930     0.100000000     0.380650280 1 1 1
     0.235527360     0.100000000     0.397303730 1 1 1
     0.251387790     0.100000000     0.413957180 1 1 1
     0.267248220     0.100000000     0.430610630 1 1 1
     0.283108640     0.100000000     0.447264080 1 1 1
     0.298969070     0.100000000     0.463917530 1 1 1
     0.314829500     0.100000000     0.480570980 1 1 1
     0.330689930     0.100000000     0.497224430 1 1 1
     0.346550360     0.100000000     0.513877870 1 1 1
     0.362410790     0.100000000     0.530531320 1 1 1
     0.378271210     0.100000000     0.547184770 1 1 1
     0.394131640     0.100000000     0.563838220 1 1 1
     0.409992070     0.100000000     0.580491670 1 1 1
     0.425852500     0.100000000     0.597145120 1 1 1
     0.441712930     0.100000000     0.613798570 1 1 1
     0.457573350     0.100000000     0.630452020 1 1 1
     0.473433780     0.100000000     0.647105470 1 1 1
     0.489294210     0.100000000     0.663758920 1 1 1
     0.505154640     0.100000000     0.680412370 1 1 1
     0.521015070     0.100000000     0.697065820 1 1 1
     0.536875500     0.100000000     0.713719270 1 1 1
     0.552735920     0.100000000     0.730372720 1 1 1
     0.568596350     0.100000000     0.747026170 1 1 1
     0.584456780     0.100000000     0.763679620 1 1 1
     0.600317210     0.100000000     0.780333070 1 1 1
     0.616177640     0.100000000     0.796986520 1 1 1
     0.632038070     0.100000000     0.813639970 1 1 1
     0.647898490     0.100000000     0.830293420 1 1 1
     0.663758920     0.100000000     0.846946870 1 1 1
     0.679619350     0.100000000     0.863600320 1 1 1
     0.695479780     0.100000000     0.880253770 1 1 1
     0.711340210     0.100000000     0.896907220 1 1 1
     0.727200630     0.100000000     0.913560670 1 1 1
     0.743061060     0.100000000     0.930214120 1 1 1
     0.758921490     0.100000000     0.946867570 1 1 1
     0.774781920     0.100000000     0.963521020 1 1 1
     0.790642350     0.100000000     0.980174460 1 1 1
     0.806502780     0.100000000     0.996827910 1 1 1
     0.014274390     0.100000000     0.114988100 1 1 1
     0.030134810     0.100000000     0.131641550 1 1 1
     0.045995240     0.100000000     0.148295000 1 1 1
     0.061855670     0.100000000     0.164948450 1 1 1
     0.077716100     0.100000000     0.181601900 1 1 1
     0.093576530     0.100000000     0.198255350 1 1 1
     0.109436950     0.100000000     0.214908800 1 1 1
     0.125297380     0.100000000     0.231562250 1 1 1
     0.141157810     0.100000000     0.248215700 1 1 1
     0.157018240     0.100000000     0.264869150 1 1 1
     0.172878670     0.100000000     0.281522600 1 1 1
     0.188739100     0.100000000     0.298176050 1 1 1
     0.204599520     0.100000000     0.314829500 1 1 1
     0.220459950     0.100000000     0.331482950 1 1 1
     0.236320380     0.100000000     0.348136400 1 1 1
     0.252180810     0.100000000     0.364789850 1 1 1
     0.268041240     0.100000000     0.381443300 1 1 1
     0.283901670     0.100000000     0.398096750 1 1 1
     0.299762090     0.100000000     0.414750200 1 1 1
     0.315622520     0.100000000     0.431403650 1 1 1
     0.331482950     0.100000000     0.448057100 1 1 1
     0.347343380     0.100000000     0.464710550 1 1 1
     0.363203810     0.100000000     0.481364000 1 1 1
     0.379064230     0.100000000     0.498017450 1 1 1
     0.394924660     0.100000000     0.514670900 1 1 1
     0.410785090     0.100000000     0.531324350 1 1 1
     0.426645520     0.100000000     0.547977800 1 1 1
     0.442505950     0.100000000     0.564631250 1 1 1
     0.458366380     0.100000000     0.581284690 1 1 1
     0.474226800     0.100000000     0.597938140 1 1 1
     0.490087230     0.100000000     0.614591590 1 1 1
     0.505947660     0.100000000     0.631245040 1 1 1
     0.521808090     0.100000000     0.647898490 1 1 1
     0.537668520     0.100000000     0.664551940 1 1 1
     0.553528950     0.100000000     0.681205390 1 1 1
     0.569389370     0.100000000     0.697858840 1 1 1
     0.585249800     0.100000000     0.714512290 1 1 1
     0.601110230     0.100000000     0.731165740 1 1 1
     0.616970660     0.100000000     0.747819190 1 1 1
     0.632831090     0.100000000     0.764472640 1 1 1
     0.648691510     0.100000000     0.781126090 1 1 1
     0.664551940     0.100000000     0.797779540 1 1 1
     0.680412370     0.100000000     0.814432990 1 1 1
     0.696272800     0.100000000     0.831086440 1 1 1
     0.712133230     0.100000000     0.847739890 1 1 1
     0.727993660     0.100000000     0.864393340 1 1 1
     0.743854080     0.100000000     0.881046790 1 1 1
     0.759714510     0.100000000     0.897700240 1 1 1
     0.775574940     0.100000000     0.914353690 1 1 1
     0.791435370     0.100000000     0.931007140 1 1 1
     0.807295800     0.100000000     0.947660590 1 1 1
     0.823156230     0.100000000     0.964314040 1 1 1
     0.839016650     0.100000000     0.980967490 1 1 1
     0.854877080     0.100000000     0.997620940 1 1 1
     0.015067410     0.100000000     0.065820780 1 1 1
     0.030927840     0.100000000     0.082474230 1 1 1
     0.046788260     0.100000000     0.099127680 1 1 1
     0.062648690     0.100000000     0.115781130 1 1 1
     0.078509120     0.100000000     0.132434580 1 1 1
     0.094369550     0.100000000     0.149088030 1 1 1
     0.110229980     0.100000000     0.165741480 1 1 1
     0.126090400     0.100000000     0.182394920 1 1 1
     0.141950830     0.100000000     0.199048370 1 1 1
     0.157811260     0.100000000     0.215701820 1 1 1
     0.173671690     0.100000000     0.232355270 1 1 1
     0.189532120     0.100000000     0.249008720 1 1 1
     0.205392550     0.100000000     0.265662170 1 1 1
     0.221252970     0.100000000     0.282315620 1 1 1
     0.237113400     0.100000000     0.298969070 1 1 1
     0.252973830     0.100000000     0.315622520 1 1 1
     0.268834260     0.100000000     0.332275970 1 1 1
     0.284694690     0.100000000     0.348929420 1 1 1
     0.300555110     0.100000000     0.365582870 1 1 1
     0.316415540     0.100000000     0.382236320 1 1 1
     0.332275970     0.100000000     0.398889770 1 1 1
     0.348136400     0.100000000     0.415543220 1 1 1
     0.363996830     0.100000000     0.432196670 1 1 1
     0.379857260     0.100000000     0.448850120 1 1 1
     0.395717680     0.100000000     0.465503570 1 1 1
     0.411578110     0.100000000     0.482157020 1 1 1