ATOMIC_SPECIES
C 6.000 ./C_ONCV_PBE-1.0.upf

NUMERICAL_ORBITAL
./C_gga_8au_100Ry_2s2p1d.orb

LATTICE_CONSTANT
1.889716

LATTICE_VECTORS
       68.8660013040       38.3398113760       0.0000000000
       -14.5928181237       26.2116321356       0.0000000000
       34.4330006520       19.1699056880       68.2594349081

ATOMIC_POSITIONS
Direct

C
0.0
4108
     0.000973710     0.100000000     0.945472250 1 1 1
     0.018500490     0.100000000     0.963972740 1 1 1
     0.036027260     0.100000000     0.982473220 1 1 1
     0.001947420     0.100000000     0.890944500 1 1 1
     0.019474200     0.100000000     0.909444990 1 1 1
     0.037000970     0.100000000     0.927945470 1 1 1
     0.054527750     0.100000000     0.946445960 1 1 1
     0.072054530     0.100000000     0.964946450 1 1 1
     0.089581300     0.100000000     0.983446930 1 1 1
     0.002921130     0.100000000     0.836416750 1 1 1
     0.020447910     0.100000000     0.854917230 1 1 1
     0.037974680     0.100000000     0.873417720 1 1 1
     0.055501460     0.100000000     0.891918210 1 1 1
     0.073028240     0.100000000     0.910418700 1 1 1
     0.090555010     0.100000000     0.928919180 1 1 1
     0.108081790     0.100000000     0.947419670 1 1 1
     0.125608570     0.100000000     0.965920160 1 1 1
     0.143135350     0.100000000     0.984420640 1 1 1
     0.003894840     0.100000000     0.781889000 1 1 1
     0.021421620     0.100000000     0.800389480 1 1 1
     0.038948390     0.100000000     0.818889970 1 1 1
     0.056475170     0.100000000     0.837390460 1 1 1
     0.074001950     0.100000000     0.855890940 1 1 1
     0.091528720     0.100000000     0.874391430 1 1 1
     0.109055500     0.100000000     0.892891920 1 1 1
     0.126582280     0.100000000     0.911392410 1 1 1
     0.144109060     0.100000000     0.929892890 1 1 1
     0.161635830     0.100000000     0.948393380 1 1 1
     0.179162610     0.100000000     0.966893870 1 1 1
     0.196689390     0.100000000     0.985394350 1 1 1
     0.004868550     0.100000000     0.727361250 1 1 1
     0.022395330     0.100000000     0.745861730 1 1 1
     0.039922100     0.100000000     0.764362220 1 1 1
     0.057448880     0.100000000     0.782862710 1 1 1
     0.074975660     0.100000000     0.801363190 1 1 1
     0.092502430     0.100000000     0.819863680 1 1 1
     0.110029210     0.100000000     0.838364170 1 1 1
     0.127555990     0.100000000     0.856864650 1 1 1
     0.145082770     0.100000000     0.875365140 1 1 1
     0.162609540     0.100000000     0.893865630 1 1 1
     0.180136320     0.100000000     0.912366110 1 1 1
     0.197663100     0.100000000     0.930866600 1 1 1
     0.215189870     0.100000000     0.949367090 1 1 1
     0.232716650     0.100000000     0.967867580 1 1 1
     0.250243430     0.100000000     0.986368060 1 1 1
     0.005842260     0.100000000     0.672833500 1 1 1
     0.023369040     0.100000000     0.691333980 1 1 1
     0.040895810     0.100000000     0.709834470 1 1 1
     0.058422590     0.100000000     0.728334960 1 1 1
     0.075949370     0.100000000     0.746835440 1 1 1
     0.093476140     0.100000000     0.765335930 1 1 1
     0.111002920     0.100000000     0.783836420 1 1 1
     0.128529700     0.100000000     0.802336900 1 1 1
     0.146056480     0.100000000     0.820837390 1 1 1
     0.163583250     0.100000000     0.839337880 1 1 1
     0.181110030     0.100000000     0.857838360 1 1 1
     0.198636810     0.100000000     0.876338850 1 1 1
     0.216163580     0.100000000     0.894839340 1 1 1
     0.233690360     0.100000000     0.913339820 1 1 1
     0.251217140     0.100000000     0.931840310 1 1 1
     0.268743910     0.100000000     0.950340800 1 1 1
     0.286270690     0.100000000     0.968841290 1 1 1
     0.303797470     0.100000000     0.987341770 1 1 1
     0.006815970     0.100000000     0.618305740 1 1 1
     0.024342750     0.100000000     0.636806230 1 1 1
     0.041869520     0.100000000     0.655306720 1 1 1
     0.059396300     0.100000000     0.673807210 1 1 1
     0.076923080     0.100000000     0.692307690 1 1 1
     0.094449850     0.100000000     0.710808180 1 1 1
     0.111976630     0.100000000     0.729308670 1 1 1
     0.129503410     0.100000000     0.747809150 1 1 1
     0.147030190     0.100000000     0.766309640 1 1 1
     0.164556960     0.100000000     0.784810130 1 1 1
     0.182083740     0.100000000     0.803310610 1 1 1
     0.199610520     0.100000000     0.821811100 1 1 1
     0.217137290     0.100000000     0.840311590 1 1 1
     0.234664070     0.100000000     0.858812070 1 1 1
     0.252190850     0.100000000     0.877312560 1 1 1
     0.269717620     0.100000000     0.895813050 1 1 1
     0.287244400     0.100000000     0.914313530 1 1 1
     0.304771180     0.100000000     0.932814020 1 1 1
     0.322297960     0.100000000     0.951314510 1 1 1
     0.339824730     0.100000000     0.969815000 1 1 1
     0.357351510     0.100000000     0.988315480 1 1 1
     0.007789680     0.100000000     0.563777990 1 1 1
     0.025316460     0.100000000     0.582278480 1 1 1
     0.042843230     0.100000000     0.600778970 1 1 1
     0.060370010     0.100000000     0.619279450 1 1 1
     0.077896790     0.100000000     0.637779940 1 1 1
     0.095423560     0.100000000     0.656280430 1 1 1
     0.112950340     0.100000000     0.674780920 1 1 1
     0.130477120     0.100000000     0.693281400 1 1 1
     0.148003890     0.100000000     0.711781890 1 1 1
     0.165530670     0.100000000     0.730282380 1 1 1
     0.183057450     0.100000000     0.748782860 1 1 1
     0.200584230     0.100000000     0.767283350 1 1 1
     0.218111000     0.100000000     0.785783840 1 1 1
     0.235637780     0.100000000     0.804284320 1 1 1
     0.253164560     0.100000000     0.822784810 1 1 1
     0.270691330     0.100000000     0.841285300 1 1 1
     0.288218110     0.100000000     0.859785780 1 1 1
     0.305744890     0.100000000     0.878286270 1 1 1
     0.323271670     0.100000000     0.896786760 1 1 1
     0.340798440     0.100000000     0.915287240 1 1 1
     0.358325220     0.100000000     0.933787730 1 1 1
     0.375852000     0.100000000     0.952288220 1 1 1
     0.393378770     0.100000000     0.970788700 1 1 1
     0.410905550     0.100000000     0.989289190 1 1 1
     0.008763390     0.100000000     0.509250240 1 1 1
     0.026290170     0.100000000     0.527750730 1 1 1
     0.043816940     0.100000000     0.546251220 1 1 1
     0.061343720     0.100000000     0.564751700 1 1 1
     0.078870500     0.100000000     0.583252190 1 1 1
     0.096397270     0.100000000     0.601752680 1 1 1
     0.113924050     0.100000000     0.620253160 1 1 1
     0.131450830     0.100000000     0.638753650 1 1 1
     0.148977600     0.100000000     0.657254140 1 1 1
     0.166504380     0.100000000     0.675754630 1 1 1
     0.184031160     0.100000000     0.694255110 1 1 1
     0.201557940     0.100000000     0.712755600 1 1 1
     0.219084710     0.100000000     0.731256090 1 1 1
     0.236611490     0.100000000     0.749756570 1 1 1
     0.254138270     0.100000000     0.768257060 1 1 1
     0.271665040     0.100000000     0.786757550 1 1 1
     0.289191820     0.100000000     0.805258030 1 1 1
     0.306718600     0.100000000     0.823758520 1 1 1
     0.324245370     0.100000000     0.842259010 1 1 1
     0.341772150     0.100000000     0.860759490 1 1 1
     0.359298930     0.100000000     0.879259980 1 1 1
     0.376825710     0.100000000     0.897760470 1 1 1
     0.394352480     0.100000000     0.916260950 1 1 1
     0.411879260     0.100000000     0.934761440 1 1 1
     0.429406040     0.100000000     0.953261930 1 1 1
     0.446932810     0.100000000     0.971762410 1 1 1
     0.464459590     0.100000000     0.990262900 1 1 1
     0.009737100     0.100000000     0.454722490 1 1 1
     0.027263880     0.100000000     0.473222980 1 1 1
     0.044790650     0.100000000     0.491723470 1 1 1
     0.062317430     0.100000000     0.510223950 1 1 1
     0.079844210     0.100000000     0.528724440 1 1 1
     0.097370980     0.100000000     0.547224930 1 1 1
     0.114897760     0.100000000     0.565725410 1 1 1
     0.132424540     0.100000000     0.584225900 1 1 1
     0.149951310     0.100000000     0.602726390 1 1 1
     0.167478090     0.100000000     0.621226870 1 1 1
     0.185004870     0.100000000     0.639727360 1 1 1
     0.202531650     0.100000000     0.658227850 1 1 1
     0.220058420     0.100000000     0.676728330 1 1 1
     0.237585200     0.100000000     0.695228820 1 1 1
     0.255111980     0.100000000     0.713729310 1 1 1
     0.272638750     0.100000000     0.732229800 1 1 1
     0.290165530     0.100000000     0.750730280 1 1 1
     0.307692310     0.100000000     0.769230770 1 1 1
     0.325219080     0.100000000     0.787731260 1 1 1
     0.342745860     0.100000000     0.806231740 1 1 1
     0.360272640     0.100000000     0.824732230 1 1 1
     0.377799420     0.100000000     0.843232720 1 1 1
     0.395326190     0.100000000     0.861733200 1 1 1
     0.412852970     0.100000000     0.880233690 1 1 1
     0.430379750     0.100000000     0.898734180 1 1 1
     0.447906520     0.100000000     0.917234660 1 1 1
     0.465433300     0.100000000     0.935735150 1 1 1
     0.482960080     0.100000000     0.954235640 1 1 1
     0.500486850     0.100000000     0.972736120 1 1 1
     0.518013630     0.100000000     0.991236610 1 1 1
     0.010710810     0.100000000     0.400194740 1 1 1
     0.028237590     0.100000000     0.418695230 1 1 1
     0.045764360     0.100000000     0.437195720 1 1 1
     0.063291140     0.100000000     0.455696200 1 1 1
     0.080817920     0.100000000     0.474196690 1 1 1
     0.098344690     0.100000000     0.492697180 1 1 1
     0.115871470     0.100000000     0.511197660 1 1 1
     0.133398250     0.100000000     0.529698150 1 1 1
     0.150925020     0.100000000     0.548198640 1 1 1
     0.168451800     0.100000000     0.566699120 1 1 1
     0.185978580     0.100000000     0.585199610 1 1 1
     0.203505360     0.100000000     0.603700100 1 1 1
     0.221032130     0.100000000     0.622200580 1 1 1
     0.238558910     0.100000000     0.640701070 1 1 1
     0.256085690     0.100000000     0.659201560 1 1 1
     0.273612460     0.100000000     0.677702040 1 1 1
     0.291139240     0.100000000     0.696202530 1 1 1
     0.308666020     0.100000000     0.714703020 1 1 1
     0.326192790     0.100000000     0.733203510 1 1 1
     0.343719570     0.100000000     0.751703990 1 1 1
     0.361246350     0.100000000     0.770204480 1 1 1
     0.378773130     0.100000000     0.788704970 1 1 1
     0.396299900     0.100000000     0.807205450 1 1 1
     0.413826680     0.100000000     0.825705940 1 1 1
     0.431353460     0.100000000     0.844206430 1 1 1
     0.448880230     0.100000000     0.862706910 1 1 1
     0.466407010     0.100000000     0.881207400 1 1 1
     0.483933790     0.100000000     0.899707890 1 1 1
     0.501460560     0.100000000     0.918208370 1 1 1
     0.518987340     0.100000000     0.936708860 1 1 1
     0.536514120     0.100000000     0.955209350 1 1 1
     0.554040900     0.100000000     0.973709830 1 1 1
     0.571567670     0.100000000     0.992210320 1 1 1
     0.011684520     0.100000000     0.345666990 1 1 1
     0.029211300     0.100000000     0.364167480 1 1 1
     0.046738070     0.100000000     0.382667960 1 1 1
     0.064264850     0.100000000     0.401168450 1 1 1
     0.081791630     0.100000000     0.419668940 1 1 1
     0.099318400     0.100000000     0.438169430 1 1 1
     0.116845180     0.100000000     0.456669910 1 1 1
     0.134371960     0.100000000     0.475170400 1 1 1
     0.151898730     0.100000000     0.493670890 1 1 1
     0.169425510     0.100000000     0.512171370 1 1 1
     0.186952290     0.100000000     0.530671860 1 1 1
     0.204479070     0.100000000     0.549172350 1 1 1
     0.222005840     0.100000000     0.567672830 1 1 1
     0.239532620     0.100000000     0.586173320 1 1 1
     0.257059400     0.100000000     0.604673810 1 1 1
     0.274586170     0.100000000     0.623174290 1 1 1
     0.292112950     0.100000000     0.641674780 1 1 1
     0.309639730     0.100000000     0.660175270 1 1 1
     0.327166500     0.100000000     0.678675750 1 1 1
     0.344693280     0.100000000     0.697176240 1 1 1
     0.362220060     0.100000000     0.715676730 1 1 1
     0.379746840     0.100000000     0.734177220 1 1 1
     0.397273610     0.100000000     0.752677700 1 1 1
     0.414800390     0.100000000     0.771178190 1 1 1
     0.432327170     0.100000000     0.789678680 1 1 1
     0.449853940     0.100000000     0.808179160 1 1 1
     0.467380720     0.100000000     0.826679650 1 1 1
     0.484907500     0.100000000     0.845180140 1 1 1
     0.502434270     0.100000000     0.863680620 1 1 1
     0.519961050     0.100000000     0.882181110 1 1 1
     0.537487830     0.100000000     0.900681600 1 1 1
     0.555014610     0.100000000     0.919182080 1 1 1
     0.572541380     0.100000000     0.937682570 1 1 1
     0.590068160     0.100000000     0.956183060 1 1 1
     0.607594940     0.100000000     0.974683540 1 1 1
     0.625121710     0.100000000     0.993184030 1 1 1
     0.012658230     0.100000000     0.291139240 1 1 1
     0.030185000     0.100000000     0.309639730 1 1 1
     0.047711780     0.100000000     0.328140210 1 1 1
     0.065238560     0.100000000     0.346640700 1 1 1
     0.082765340     0.100000000     0.365141190 1 1 1
     0.100292110     0.100000000     0.383641670 1 1 1
     0.117818890     0.100000000     0.402142160 1 1 1
     0.135345670     0.100000000     0.420642650 1 1 1
     0.152872440     0.100000000     0.439143140 1 1 1
     0.170399220     0.100000000     0.457643620 1 1 1
     0.187926000     0.100000000     0.476144110 1 1 1
     0.205452780     0.100000000     0.494644600 1 1 1
     0.222979550     0.100000000     0.513145080 1 1 1
     0.240506330     0.100000000     0.531645570 1 1 1
     0.258033110     0.100000000     0.550146060 1 1 1
     0.275559880     0.100000000     0.568646540 1 1 1
     0.293086660     0.100000000     0.587147030 1 1 1
     0.310613440     0.100000000     0.605647520 1 1 1
     0.328140210     0.100000000     0.624148000 1 1 1
     0.345666990     0.100000000     0.642648490 1 1 1
     0.363193770     0.100000000     0.661148980 1 1 1
     0.380720550     0.100000000     0.679649460 1 1 1
     0.398247320     0.100000000     0.698149950 1 1 1
     0.415774100     0.100000000     0.716650440 1 1 1
     0.433300880     0.100000000     0.735150930 1 1 1
     0.450827650     0.100000000     0.753651410 1 1 1
     0.468354430     0.100000000     0.772151900 1 1 1
     0.485881210     0.100000000     0.790652390 1 1 1
     0.503407980     0.100000000     0.809152870 1 1 1
     0.520934760     0.100000000     0.827653360 1 1 1
     0.538461540     0.100000000     0.846153850 1 1 1
     0.555988320     0.100000000     0.864654330 1 1 1
     0.573515090     0.100000000     0.883154820 1 1 1
     0.591041870     0.100000000     0.901655310 1 1 1
     0.608568650     0.100000000     0.920155790 1 1 1
     0.626095420     0.100000000     0.938656280 1 1 1
     0.643622200     0.100000000     0.957156770 1 1 1
     0.661148980     0.100000000     0.975657250 1 1 1
     0.678675750     0.100000000     0.994157740 1 1 1
     0.013631940     0.100000000     0.236611490 1 1 1
     0.031158710     0.100000000     0.255111980 1 1 1
     0.048685490     0.100000000     0.273612460 1 1 1
     0.066212270     0.100000000     0.292112950 1 1 1
     0.083739050     0.100000000     0.310613440 1 1 1
     0.101265820     0.100000000     0.329113920 1 1 1
     0.118792600     0.100000000     0.347614410 1 1 1
     0.136319380     0.100000000     0.366114900 1 1 1
     0.153846150     0.100000000     0.384615380 1 1 1
     0.171372930     0.100000000     0.403115870 1 1 1
     0.188899710     0.100000000     0.421616360 1 1 1
     0.206426480     0.100000000     0.440116850 1 1 1
     0.223953260     0.100000000     0.458617330 1 1 1
     0.241480040     0.100000000     0.477117820 1 1 1
     0.259006820     0.100000000     0.495618310 1 1 1
     0.276533590     0.100000000     0.514118790 1 1 1
     0.294060370     0.100000000     0.532619280 1 1 1
     0.311587150     0.100000000     0.551119770 1 1 1
     0.329113920     0.100000000     0.569620250 1 1 1
     0.346640700     0.100000000     0.588120740 1 1 1
     0.364167480     0.100000000     0.606621230 1 1 1
     0.381694260     0.100000000     0.625121710 1 1 1
     0.399221030     0.100000000     0.643622200 1 1 1
     0.416747810     0.100000000     0.662122690 1 1 1
     0.434274590     0.100000000     0.680623170 1 1 1
     0.451801360     0.100000000     0.699123660 1 1 1
     0.469328140     0.100000000     0.717624150 1 1 1
     0.486854920     0.100000000     0.736124630 1 1 1
     0.504381690     0.100000000     0.754625120 1 1 1
     0.521908470     0.100000000     0.773125610 1 1 1
     0.539435250     0.100000000     0.791626100 1 1 1
     0.556962030     0.100000000     0.810126580 1 1 1
     0.574488800     0.100000000     0.828627070 1 1 1
     0.592015580     0.100000000     0.847127560 1 1 1
     0.609542360     0.100000000     0.865628040 1 1 1
     0.627069130     0.100000000     0.884128530 1 1 1
     0.644595910     0.100000000     0.902629020 1 1 1
     0.662122690     0.100000000     0.921129500 1 1 1
     0.679649460     0.100000000     0.939629990 1 1 1
     0.697176240     0.100000000     0.958130480 1 1 1
     0.714703020     0.100000000     0.976630960 1 1 1
     0.732229800     0.100000000     0.995131450 1 1 1
     0.014605650     0.100000000     0.182083740 1 1 1
     0.032132420     0.100000000     0.200584230 1 1 1
     0.049659200     0.100000000     0.219084710 1 1 1
     0.067185980     0.100000000     0.237585200 1 1 1
     0.084712760     0.100000000     0.256085690 1 1 1
     0.102239530     0.100000000     0.274586170 1 1 1
     0.119766310     0.100000000     0.293086660 1 1 1
     0.137293090     0.100000000     0.311587150 1 1 1
     0.154819860     0.100000000     0.330087630 1 1 1
     0.172346640     0.100000000     0.348588120 1 1 1
     0.189873420     0.100000000     0.367088610 1 1 1
     0.207400190     0.100000000     0.385589090 1 1 1
     0.224926970     0.100000000     0.404089580 1 1 1
     0.242453750     0.100000000     0.422590070 1 1 1
     0.259980530     0.100000000     0.441090560 1 1 1
     0.277507300     0.100000000     0.459591040 1 1 1
     0.295034080     0.100000000     0.478091530 1 1 1
     0.312560860     0.100000000     0.496592020 1 1 1
     0.330087630     0.100000000     0.515092500 1 1 1
     0.347614410     0.100000000     0.533592990 1 1 1
     0.365141190     0.100000000     0.552093480 1 1 1
     0.382667960     0.100000000     0.570593960 1 1 1
     0.400194740     0.100000000     0.589094450 1 1 1
     0.417721520     0.100000000     0.607594940 1 1 1
     0.435248300     0.100000000     0.626095420 1 1 1
     0.452775070     0.100000000     0.644595910 1 1 1
     0.470301850     0.100000000     0.663096400 1 1 1
     0.487828630     0.100000000     0.681596880 1 1 1
     0.505355400     0.100000000     0.700097370 1 1 1
     0.522882180     0.100000000     0.718597860 1 1 1
     0.540408960     0.100000000     0.737098340 1 1 1
     0.557935740     0.100000000     0.755598830 1 1 1
     0.575462510     0.100000000     0.774099320 1 1 1
     0.592989290     0.100000000     0.792599810 1 1 1
     0.610516070     0.100000000     0.811100290 1 1 1
     0.628042840     0.100000000     0.829600780 1 1 1
     0.645569620     0.100000000     0.848101270 1 1 1
     0.663096400     0.100000000     0.866601750 1 1 1
     0.680623170     0.100000000     0.885102240 1 1 1
     0.698149950     0.100000000     0.903602730 1 1 1
     0.715676730     0.100000000     0.922103210 1 1 1
     0.733203510     0.100000000     0.940603700 1 1 1
     0.750730280     0.100000000     0.959104190 1 1 1
     0.768257060     0.100000000     0.977604670 1 1 1
     0.785783840     0.100000000     0.996105160 1 1 1
     0.015579360     0.100000000     0.127555990 1 1 1
     0.033106130     0.100000000     0.146056480 1 1 1
     0.050632910     0.100000000     0.164556960 1 1 1
     0.068159690     0.100000000     0.183057450 1 1 1
     0.085686470     0.100000000     0.201557940 1 1 1
     0.103213240     0.100000000     0.220058420 1 1 1
     0.120740020     0.100000000     0.238558910 1 1 1
     0.138266800     0.100000000     0.257059400 1 1 1
     0.155793570     0.100000000     0.275559880 1 1 1
     0.173320350     0.100000000     0.294060370 1 1 1
     0.190847130     0.100000000     0.312560860 1 1 1
     0.208373900     0.100000000     0.331061340 1 1 1
     0.225900680     0.100000000     0.349561830 1 1 1
     0.243427460     0.100000000     0.368062320 1 1 1
     0.260954240     0.100000000     0.386562800 1 1 1
     0.278481010     0.100000000     0.405063290 1 1 1
     0.296007790     0.100000000     0.423563780 1 1 1
     0.313534570     0.100000000     0.442064260 1 1 1
     0.331061340     0.100000000     0.460564750 1 1 1
     0.348588120     0.100000000     0.479065240 1 1 1
     0.366114900     0.100000000     0.497565730 1 1 1
     0.383641670     0.100000000     0.516066210 1 1 1
     0.401168450     0.100000000     0.534566700 1 1 1
     0.418695230     0.100000000     0.553067190 1 1 1
     0.436222010     0.100000000     0.571567670 1 1 1
     0.453748780     0.100000000     0.590068160 1 1 1
     0.471275560     0.100000000     0.608568650 1 1 1
     0.488802340     0.100000000     0.627069130 1 1 1
     0.506329110     0.100000000     0.645569620 1 1 1
     0.523855890     0.100000000     0.664070110 1 1 1
     0.541382670     0.100000000     0.682570590 1 1 1
     0.558909440     0.100000000     0.701071080 1 1 1
     0.576436220     0.100000000     0.719571570 1 1 1
     0.593963000     0.100000000     0.738072050 1 1 1
     0.611489780     0.100000000     0.756572540 1 1 1
     0.629016550     0.100000000     0.775073030 1 1 1
     0.646543330     0.100000000     0.793573520 1 1 1
     0.664070110     0.100000000     0.812074000 1 1 1
     0.681596880     0.100000000     0.830574490 1 1 1
     0.699123660     0.100000000     0.849074980 1 1 1
     0.716650440     0.100000000     0.867575460 1 1 1
     0.734177220     0.100000000     0.886075950 1 1 1
     0.751703990     0.100000000     0.904576440 1 1 1
     0.769230770     0.100000000     0.923076920 1 1 1
     0.786757550     0.100000000     0.941577410 1 1 1
     0.804284320     0.100000000     0.960077900 1 1 1
     0.821811100     0.100000000     0.978578380 1 1 1
     0.839337880     0.100000000     0.997078870 1 1 1
     0.016553070     0.100000000     0.073028240 1 1 1
     0.034079840     0.100000000     0.091528720 1 1 1
     0.051606620     0.100000000     0.110029210 1 1 1
     0.069133400     0.100000000     0.128529700 1 1 1
     0.086660180     0.100000000     0.147030190 1 1 1
     0.104186950     0.100000000     0.165530670 1 1 1
     0.121713730     0.100000000     0.184031160 1 1 1
     0.139240510     0.100000000     0.202531650 1 1 1
     0.156767280     0.100000000     0.221032130 1 1 1
     0.174294060     0.100000000     0.239532620 1 1 1
     0.191820840     0.100000000     0.258033110 1 1 1
     0.209347610     0.100000000     0.276533590 1 1 1
     0.226874390     0.100000000     0.295034080 1 1 1
     0.244401170     0.100000000     0.313534570 1 1 1
     0.261927950     0.100000000     0.332035050 1 1 1
     0.279454720     0.100000000     0.350535540 1 1 1
     0.296981500     0.100000000     0.369036030 1 1 1
     0.314508280     0.100000000     0.387536510 1 1 1
     0.332035050     0.100000000     0.406037000 1 1 1
     0.349561830     0.100000000     0.424537490 1 1 1
     0.367088610     0.100000000     0.443037970 1 1 1
     0.384615380     0.100000000     0.461538460 1 1 1
     0.402142160     0.100000000     0.480038950 1 1 1
     0.419668940     0.100000000     0.498539440 1 1 1
     0.437195720     0.100000000     0.517039920 1 1 1
     0.454722490     0.100000000     0.535540410 1 1 1
     0.472249270     0.100000000     0.554040900 1 1 1
     0.489776050     0.100000000     0.572541380 1 1 1
     0.507302820     0.100000000     0.591041870 1 1 1
     0.524829600     0.100000000     0.609542360 1 1 1
     0.542356380     0.100000000     0.628042840 1 1 1
     0.559883150     0.100000000     0.646543330 1 1 1
     0.577409930     0.100000000     0.665043820 1 1 1
     0.594936710     0.100000000     0.683544300 1 1 1
     0.612463490     0.100000000     0.702044790 1 1 1
     0.629990260     0.100000000     0.720545280 1 1 1
     0.647517040     0.100000000     0.739045760 1 1 1
     0.665043820     0.100000000     0.757546250 1 1 1
     0.682570590     0.100000000     0.776046740 1 1 1
     0.700097370     0.100000000     0.794547220 1 1 1
     0.717624150     0.100000000     0.813047710 1 1 1
     0.735150930     0.100000000     0.831548200 1 1 1
     0.752677700     0.100000000     0.850048690 1 1 1
     0.770204480     0.100000000     0.868549170 1 1 1
     0.787731260     0.100000000     0.887049660 1 1 1
     0.805258030     0.100000000     0.905550150 1 1 1
     0.822784810     0.100000000     0.924050630 1 1 1
     0.840311590     0.100000000     0.942551120 1 1 1
     0.857838360     0.100000000     0.961051610 1 1 1
     0.875365140     0.100000000     0.979552090 1 1 1
     0.892891920     0.100000000     0.998052580 1 1 1
     0.000000000     0.100000000     0.000000000 1 1 1
     0.017526780     0.100000000     0.018500490 1 1 1
     0.035053550     0.100000000     0.037000970 1 1 1
     0.052580330     0.100000000     0.055501460 1 1 1
     0.070107110     0.100000000     0.074001950 1 1 1
     0.087633890     0.100000000     0.092502430 1 1 1
     0.105160660     0.100000000     0.111002920 1 1 1
     0.122687440     0.100000000     0.129503410 1 1 1
     0.140214220     0.100000000     0.148003890 1 1 1
     0.157740990     0.100000000     0.166504380 1 1 1
     0.175267770     0.100000000     0.185004870 1 1 1
     0.192794550     0.100000000     0.203505360 1 1 1
     0.210321320     0.100000000     0.222005840 1 1 1
     0.227848100     0.100000000     0.240506330 1 1 1
     0.245374880     0.100000000     0.259006820 1 1 1
     0.262901660     0.100000000     0.277507300 1 1 1
     0.280428430     0.100000000     0.296007790 1 1 1
     0.297955210     0.100000000     0.314508280 1 1 1
     0.315481990     0.100000000     0.333008760 1 1 1
     0.333008760     0.100000000     0.351509250 1 1 1
     0.350535540     0.100000000     0.370009740 1 1 1
     0.368062320     0.100000000     0.388510220 1 1 1
     0.385589090     0.100000000     0.407010710 1 1 1
     0.403115870     0.100000000     0.425511200 1 1 1
     0.420642650     0.100000000     0.444011680 1 1 1
     0.438169430     0.100000000     0.462512170 1 1 1
     0.455696200     0.100000000     0.481012660 1 1 1
     0.473222980     0.100000000     0.499513150 1 1 1
     0.490749760     0.100000000     0.518013630 1 1 1
     0.508276530     0.100000000     0.536514120 1 1 1
     0.525803310     0.100000000     0.555014610 1 1 1
     0.543330090     0.100000000     0.573515090 1 1 1
     0.560856860     0.100000000     0.592015580 1 1 1
     0.578383640     0.100000000     0.610516070 1 1 1
     0.595910420     0.100000000     0.629016550 1 1 1
     0.613437200     0.100000000     0.647517040 1 1 1
     0.630963970     0.100000000     0.666017530 1 1 1
     0.648490750     0.100000000     0.684518010 1 1 1
     0.666017530     0.100000000     0.703018500 1 1 1
     0.683544300     0.100000000     0.721518990 1 1 1
     0.701071080     0.100000000     0.740019470 1 1 1
     0.718597860     0.100000000     0.758519960 1 1 1
     0.736124630     0.100000000     0.777020450 1 1 1
     0.753651410     0.100000000     0.795520930 1 1 1
     0.771178190     0.100000000     0.814021420 1 1 1
     0.788704970     0.100000000     0.832521910 1 1 1
     0.806231740     0.100000000     0.851022400 1 1 1
     0.823758520     0.100000000     0.869522880 1 1 1
     0.841285300     0.100000000     0.888023370 1 1 1
     0.858812070     0.100000000     0.906523860 1 1 1
     0.876338850     0.100000000     0.925024340 1 1 1
     0.893865630     0.100000000     0.943524830 1 1 1
     0.911392410     0.100000000     0.962025320 1 1 1
     0.928919180     0.100000000     0.980525800 1 1 1
     0.946445960     0.100000000     0.999026290 1 1 1
     0.053554040     0.100000000     0.000973710 1 1 1
     0.071080820     0.100000000     0.019474200 1 1 1
     0.088607590     0.100000000     0.037974680 1 1 1
     0.106134370     0.100000000     0.056475170 1 1 1
     0.123661150     0.100000000     0.074975660 1 1 1
     0.141187930     0.100000000     0.093476140 1 1 1
     0.158714700     0.100000000     0.111976630 1 1 1
     0.176241480     0.100000000     0.130477120 1 1 1
     0.193768260     0.100000000     0.148977600 1 1 1
     0.211295030     0.100000000     0.167478090 1 1 1
     0.228821810     0.100000000     0.185978580 1 1 1
     0.246348590     0.100000000     0.204479070 1 1 1
     0.263875370     0.100000000     0.222979550 1 1 1
     0.281402140     0.100000000     0.241480040 1 1 1
     0.298928920     0.100000000     0.259980530 1 1 1
     0.316455700     0.100000000     0.278481010 1 1 1
     0.333982470     0.100000000     0.296981500 1 1 1
     0.351509250     0.100000000     0.315481990 1 1 1
     0.369036030     0.100000000     0.333982470 1 1 1
     0.386562800     0.100000000     0.352482960 1 1 1
     0.404089580     0.100000000     0.370983450 1 1 1
     0.421616360     0.100000000     0.389483930 1 1 1
     0.439143140     0.100000000     0.407984420 1 1 1
     0.456669910     0.100000000     0.426484910 1 1 1
     0.474196690     0.100000000     0.444985390 1 1 1