ATOMIC_SPECIES
C 6.000 /mnt/C_ONCV_PBE-1.0.upf

NUMERICAL_ORBITAL
/mnt/C_gga_8au_100Ry_2s2p1d.orb

LATTICE_CONSTANT
1.889716

LATTICE_VECTORS
       17.21650000       8.51995792       0.00000000
       1.22975000       19.16990533       0.00000000
       0.00000000       0.00000000       30.00000000

ATOMIC_POSITIONS
Direct

C
0.0
244
     0.01639344     0.77049180     0.10000000 1 1 1
     0.08196721     0.85245902     0.10000000 1 1 1
     0.14754098     0.93442623     0.10000000 1 1 1
     0.03278689     0.54098361     0.10000000 1 1 1
     0.09836066     0.62295082     0.10000000 1 1 1
     0.16393443     0.70491803     0.10000000 1 1 1
     0.22950820     0.78688525     0.10000000 1 1 1
     0.29508197     0.86885246     0.10000000 1 1 1
     0.36065574     0.95081967     0.10000000 1 1 1
     0.04918033     0.31147541     0.10000000 1 1 1
     0.11475410     0.39344262     0.10000000 1 1 1
     0.18032787     0.47540984     0.10000000 1 1 1
     0.24590164     0.55737705     0.10000000 1 1 1
     0.31147541     0.63934426     0.10000000 1 1 1
     0.37704918     0.72131148     0.10000000 1 1 1
     0.44262295     0.80327869     0.10000000 1 1 1
     0.50819672     0.88524590     0.10000000 1 1 1
     0.57377049     0.96721311     0.10000000 1 1 1
     0.00000000     0.00000000     0.10000000 1 1 1
     0.06557377     0.08196721     0.10000000 1 1 1
     0.13114754     0.16393443     0.10000000 1 1 1
     0.19672131     0.24590164     0.10000000 1 1 1
     0.26229508     0.32786885     0.10000000 1 1 1
     0.32786885     0.40983607     0.10000000 1 1 1
     0.39344262     0.49180328     0.10000000 1 1 1
     0.45901639     0.57377049     0.10000000 1 1 1
     0.52459016     0.65573770     0.10000000 1 1 1
     0.59016393     0.73770492     0.10000000 1 1 1
     0.65573770     0.81967213     0.10000000 1 1 1
     0.72131148     0.90163934     0.10000000 1 1 1
     0.78688525     0.98360656     0.10000000 1 1 1
     0.21311475     0.01639344     0.10000000 1 1 1
     0.27868852     0.09836066     0.10000000 1 1 1
     0.34426230     0.18032787     0.10000000 1 1 1
     0.40983607     0.26229508     0.10000000 1 1 1
     0.47540984     0.34426230     0.10000000 1 1 1
     0.54098361     0.42622951     0.10000000 1 1 1
     0.60655738     0.50819672     0.10000000 1 1 1
     0.67213115     0.59016393     0.10000000 1 1 1
     0.73770492     0.67213115     0.10000000 1 1 1
     0.80327869     0.75409836     0.10000000 1 1 1
     0.86885246     0.83606557     0.10000000 1 1 1
     0.93442623     0.91803279     0.10000000 1 1 1
     0.42622951     0.03278689     0.10000000 1 1 1
     0.49180328     0.11475410     0.10000000 1 1 1
     0.55737705     0.19672131     0.10000000 1 1 1
     0.62295082     0.27868852     0.10000000 1 1 1
     0.68852459     0.36065574     0.10000000 1 1 1
     0.75409836     0.44262295     0.10000000 1 1 1
     0.81967213     0.52459016     0.10000000 1 1 1
     0.88524590     0.60655738     0.10000000 1 1 1
     0.95081967     0.68852459     0.10000000 1 1 1
     0.63934426     0.04918033     0.10000000 1 1 1
     0.70491803     0.13114754     0.10000000 1 1 1
     0.77049180     0.21311475     0.10000000 1 1 1
     0.83606557     0.29508197     0.10000000 1 1 1
     0.90163934     0.37704918     0.10000000 1 1 1
     0.96721311     0.45901639     0.10000000 1 1 1
     0.85245902     0.06557377     0.10000000 1 1 1
     0.91803279     0.14754098     0.10000000 1 1 1
     0.98360656     0.22950820     0.10000000 1 1 1
     0.15846995     0.78142076     0.10000000 1 1 1
     0.22404372     0.86338797     0.10000000 1 1 1
     0.28961749     0.94535519     0.10000000 1 1 1
     0.17486339     0.55191256     0.10000000 1 1 1
     0.24043716     0.63387978     0.10000000 1 1 1
     0.30601093     0.71584699     0.10000000 1 1 1
     0.37158470     0.79781420     0.10000000 1 1 1
     0.43715847     0.87978142     0.10000000 1 1 1
     0.50273224     0.96174863     0.10000000 1 1 1
     0.19125683     0.32240437     0.10000000 1 1 1
     0.25683060     0.40437158     0.10000000 1 1 1
     0.32240437     0.48633879     0.10000000 1 1 1
     0.38797814     0.56830601     0.10000000 1 1 1
     0.45355191     0.65027322     0.10000000 1 1 1
     0.51912568     0.73224043     0.10000000 1 1 1
     0.58469945     0.81420765     0.10000000 1 1 1
     0.65027322     0.89617486     0.10000000 1 1 1
     0.71584699     0.97814207     0.10000000 1 1 1
     0.14207650     0.01092896     0.10000000 1 1 1
     0.20765027     0.09289617     0.10000000 1 1 1
     0.27322404     0.17486338     0.10000000 1 1 1
     0.33879781     0.25683060     0.10000000 1 1 1
     0.40437159     0.33879781     0.10000000 1 1 1
     0.46994536     0.42076502     0.10000000 1 1 1
     0.53551913     0.50273224     0.10000000 1 1 1
     0.60109290     0.58469945     0.10000000 1 1 1
     0.66666667     0.66666666     0.10000000 1 1 1
     0.73224044     0.74863388     0.10000000 1 1 1
     0.79781421     0.83060109     0.10000000 1 1 1
     0.86338798     0.91256830     0.10000000 1 1 1
     0.92896175     0.99453551     0.10000000 1 1 1
     0.35519126     0.02732240     0.10000000 1 1 1
     0.42076503     0.10928961     0.10000000 1 1 1
     0.48633880     0.19125683     0.10000000 1 1 1
     0.55191257     0.27322404     0.10000000 1 1 1
     0.61748634     0.35519125     0.10000000 1 1 1
     0.68306011     0.43715847     0.10000000 1 1 1
     0.74863388     0.51912568     0.10000000 1 1 1
     0.81420765     0.60109289     0.10000000 1 1 1
     0.87978142     0.68306010     0.10000000 1 1 1
     0.94535519     0.76502732     0.10000000 1 1 1
     1.01092896     0.84699453     0.10000000 1 1 1
     1.07650273     0.92896174     0.10000000 1 1 1
     0.56830601     0.04371584     0.10000000 1 1 1
     0.63387978     0.12568306     0.10000000 1 1 1
     0.69945355     0.20765027     0.10000000 1 1 1
     0.76502732     0.28961748     0.10000000 1 1 1
     0.83060109     0.37158469     0.10000000 1 1 1
     0.89617486     0.45355191     0.10000000 1 1 1
     0.96174863     0.53551912     0.10000000 1 1 1
     1.02732240     0.61748633     0.10000000 1 1 1
     1.09289618     0.69945355     0.10000000 1 1 1
     0.78142077     0.06010929     0.10000000 1 1 1
     0.84699454     0.14207650     0.10000000 1 1 1
     0.91256831     0.22404371     0.10000000 1 1 1
     0.97814208     0.30601092     0.10000000 1 1 1
     1.04371585     0.38797814     0.10000000 1 1 1
     1.10928962     0.46994535     0.10000000 1 1 1
     0.99453552     0.07650273     0.10000000 1 1 1
     1.06010929     0.15846994     0.10000000 1 1 1
     1.12568306     0.24043715     0.10000000 1 1 1
     0.06557377     0.85245902     0.21361333 1 1 1
     0.14754098     0.91803279     0.21361333 1 1 1
     0.22950820     0.98360656     0.21361333 1 1 1
     0.04918033     0.63934426     0.21361333 1 1 1
     0.13114754     0.70491803     0.21361333 1 1 1
     0.21311475     0.77049180     0.21361333 1 1 1
     0.29508197     0.83606557     0.21361333 1 1 1
     0.37704918     0.90163934     0.21361333 1 1 1
     0.45901639     0.96721311     0.21361333 1 1 1
     0.03278689     0.42622951     0.21361333 1 1 1
     0.11475410     0.49180328     0.21361333 1 1 1
     0.19672131     0.55737705     0.21361333 1 1 1
     0.27868852     0.62295082     0.21361333 1 1 1
     0.36065574     0.68852459     0.21361333 1 1 1
     0.44262295     0.75409836     0.21361333 1 1 1
     0.52459016     0.81967213     0.21361333 1 1 1
     0.60655738     0.88524590     0.21361333 1 1 1
     0.68852459     0.95081967     0.21361333 1 1 1
     0.01639344     0.21311475     0.21361333 1 1 1
     0.09836066     0.27868852     0.21361333 1 1 1
     0.18032787     0.34426230     0.21361333 1 1 1
     0.26229508     0.40983607     0.21361333 1 1 1
     0.34426230     0.47540984     0.21361333 1 1 1
     0.42622951     0.54098361     0.21361333 1 1 1
     0.50819672     0.60655738     0.21361333 1 1 1
     0.59016393     0.67213115     0.21361333 1 1 1
     0.67213115     0.73770492     0.21361333 1 1 1
     0.75409836     0.80327869     0.21361333 1 1 1
     0.83606557     0.86885246     0.21361333 1 1 1
     0.91803279     0.93442623     0.21361333 1 1 1
     0.00000000     0.00000000     0.21361333 1 1 1
     0.08196721     0.06557377     0.21361333 1 1 1
     0.16393443     0.13114754     0.21361333 1 1 1
     0.24590164     0.19672131     0.21361333 1 1 1
     0.32786885     0.26229508     0.21361333 1 1 1
     0.40983607     0.32786885     0.21361333 1 1 1
     0.49180328     0.39344262     0.21361333 1 1 1
     0.57377049     0.45901639     0.21361333 1 1 1
     0.65573770     0.52459016     0.21361333 1 1 1
     0.73770492     0.59016393     0.21361333 1 1 1
     0.81967213     0.65573770     0.21361333 1 1 1
     0.90163934     0.72131148     0.21361333 1 1 1
     0.98360656     0.78688525     0.21361333 1 1 1
     0.31147541     0.04918033     0.21361333 1 1 1
     0.39344262     0.11475410     0.21361333 1 1 1
     0.47540984     0.18032787     0.21361333 1 1 1
     0.55737705     0.24590164     0.21361333 1 1 1
     0.63934426     0.31147541     0.21361333 1 1 1
     0.72131148     0.37704918     0.21361333 1 1 1
     0.80327869     0.44262295     0.21361333 1 1 1
     0.88524590     0.50819672     0.21361333 1 1 1
     0.96721311     0.57377049     0.21361333 1 1 1
     0.54098361     0.03278689     0.21361333 1 1 1
     0.62295082     0.09836066     0.21361333 1 1 1
     0.70491803     0.16393443     0.21361333 1 1 1
     0.78688525     0.22950820     0.21361333 1 1 1
     0.86885246     0.29508197     0.21361333 1 1 1
     0.95081967     0.36065574     0.21361333 1 1 1
     0.77049180     0.01639344     0.21361333 1 1 1
     0.85245902     0.08196721     0.21361333 1 1 1
     0.93442623     0.14754098     0.21361333 1 1 1
     0.21857923     0.84153005     0.21361333 1 1 1
     0.30054645     0.90710382     0.21361333 1 1 1
     0.38251366     0.97267759     0.21361333 1 1 1
     0.20218579     0.62841530     0.21361333 1 1 1
     0.28415301     0.69398907     0.21361333 1 1 1
     0.36612022     0.75956284     0.21361333 1 1 1
     0.44808743     0.82513661     0.21361333 1 1 1
     0.53005464     0.89071038     0.21361333 1 1 1
     0.61202186     0.95628415     0.21361333 1 1 1
     0.18579235     0.41530054     0.21361333 1 1 1
     0.26775956     0.48087431     0.21361333 1 1 1
     0.34972678     0.54644808     0.21361333 1 1 1
     0.43169399     0.61202185     0.21361333 1 1 1
     0.51366120     0.67759562     0.21361333 1 1 1
     0.59562842     0.74316939     0.21361333 1 1 1
     0.67759563     0.80874317     0.21361333 1 1 1
     0.75956284     0.87431694     0.21361333 1 1 1
     0.84153005     0.93989071     0.21361333 1 1 1
     0.16939891     0.20218579     0.21361333 1 1 1
     0.25136612     0.26775956     0.21361333 1 1 1
     0.33333333     0.33333333     0.21361333 1 1 1
     0.41530055     0.39890710     0.21361333 1 1 1
     0.49726776     0.46448087     0.21361333 1 1 1
     0.57923497     0.53005464     0.21361333 1 1 1
     0.66120219     0.59562841     0.21361333 1 1 1
     0.74316940     0.66120218     0.21361333 1 1 1
     0.82513661     0.72677595     0.21361333 1 1 1
     0.90710382     0.79234972     0.21361333 1 1 1
     0.98907104     0.85792349     0.21361333 1 1 1
     1.07103825     0.92349726     0.21361333 1 1 1
     0.15300546     -0.01092897     0.21361333 1 1 1
     0.23497268     0.05464480     0.21361333 1 1 1
     0.31693989     0.12021857     0.21361333 1 1 1
     0.39890710     0.18579235     0.21361333 1 1 1
     0.48087432     0.25136612     0.21361333 1 1 1
     0.56284153     0.31693989     0.21361333 1 1 1
     0.64480874     0.38251366     0.21361333 1 1 1
     0.72677596     0.44808743     0.21361333 1 1 1
     0.80874317     0.51366120     0.21361333 1 1 1
     0.89071038     0.57923497     0.21361333 1 1 1
     0.97267760     0.64480874     0.21361333 1 1 1
     1.05464481     0.71038251     0.21361333 1 1 1
     1.13661202     0.77595628     0.21361333 1 1 1
     0.46448087     0.03825136     0.21361333 1 1 1
     0.54644809     0.10382513     0.21361333 1 1 1
     0.62841530     0.16939890     0.21361333 1 1 1
     0.71038251     0.23497267     0.21361333 1 1 1
     0.79234973     0.30054644     0.21361333 1 1 1
     0.87431694     0.36612021     0.21361333 1 1 1
     0.95628415     0.43169398     0.21361333 1 1 1
     1.03825137     0.49726776     0.21361333 1 1 1
     1.12021858     0.56284153     0.21361333 1 1 1
     0.69398907     0.02185792     0.21361333 1 1 1
     0.77595628     0.08743169     0.21361333 1 1 1
     0.85792350     0.15300546     0.21361333 1 1 1
     0.93989071     0.21857923     0.21361333 1 1 1
     1.02185792     0.28415300     0.21361333 1 1 1
     1.10382514     0.34972677     0.21361333 1 1 1
     0.92349727     0.00546448     0.21361333 1 1 1
     1.00546448     0.07103825     0.21361333 1 1 1
     1.08743169     0.13661202     0.21361333 1 1 1
