ATOMIC_SPECIES
C 6.000 ./C_ONCV_PBE-1.0.upf

NUMERICAL_ORBITAL
./C_gga_8au_100Ry_2s2p1d.orb

LATTICE_CONSTANT
1.889716

LATTICE_VECTORS
       98.3800006070       55.3797268417       0.0000000000
       -14.7161080066       26.1426120565       0.0000000000
       49.1900003035       27.6898634208       97.7709261405

ATOMIC_POSITIONS
Direct

C
0.0
8428
     0.000474610     0.100000000     0.962031320 1 1 1
     0.012814430     0.100000000     0.974845750 1 1 1
     0.025154250     0.100000000     0.987660180 1 1 1
     0.000949220     0.100000000     0.924062650 1 1 1
     0.013289040     0.100000000     0.936877080 1 1 1
     0.025628860     0.100000000     0.949691500 1 1 1
     0.037968680     0.100000000     0.962505930 1 1 1
     0.050308500     0.100000000     0.975320360 1 1 1
     0.062648320     0.100000000     0.988134790 1 1 1
     0.001423830     0.100000000     0.886093970 1 1 1
     0.013763640     0.100000000     0.898908400 1 1 1
     0.026103460     0.100000000     0.911722830 1 1 1
     0.038443280     0.100000000     0.924537260 1 1 1
     0.050783100     0.100000000     0.937351680 1 1 1
     0.063122920     0.100000000     0.950166110 1 1 1
     0.075462740     0.100000000     0.962980540 1 1 1
     0.087802560     0.100000000     0.975794970 1 1 1
     0.100142380     0.100000000     0.988609400 1 1 1
     0.001898430     0.100000000     0.848125300 1 1 1
     0.014238250     0.100000000     0.860939720 1 1 1
     0.026578070     0.100000000     0.873754150 1 1 1
     0.038917890     0.100000000     0.886568580 1 1 1
     0.051257710     0.100000000     0.899383010 1 1 1
     0.063597530     0.100000000     0.912197440 1 1 1
     0.075937350     0.100000000     0.925011870 1 1 1
     0.088277170     0.100000000     0.937826290 1 1 1
     0.100616990     0.100000000     0.950640720 1 1 1
     0.112956810     0.100000000     0.963455150 1 1 1
     0.125296630     0.100000000     0.976269580 1 1 1
     0.137636450     0.100000000     0.989084010 1 1 1
     0.002373040     0.100000000     0.810156620 1 1 1
     0.014712860     0.100000000     0.822971050 1 1 1
     0.027052680     0.100000000     0.835785480 1 1 1
     0.039392500     0.100000000     0.848599910 1 1 1
     0.051732320     0.100000000     0.861414330 1 1 1
     0.064072140     0.100000000     0.874228760 1 1 1
     0.076411960     0.100000000     0.887043190 1 1 1
     0.088751780     0.100000000     0.899857620 1 1 1
     0.101091600     0.100000000     0.912672050 1 1 1
     0.113431420     0.100000000     0.925486470 1 1 1
     0.125771240     0.100000000     0.938300900 1 1 1
     0.138111060     0.100000000     0.951115330 1 1 1
     0.150450880     0.100000000     0.963929760 1 1 1
     0.162790700     0.100000000     0.976744190 1 1 1
     0.175130520     0.100000000     0.989558610 1 1 1
     0.002847650     0.100000000     0.772187940 1 1 1
     0.015187470     0.100000000     0.785002370 1 1 1
     0.027527290     0.100000000     0.797816800 1 1 1
     0.039867110     0.100000000     0.810631230 1 1 1
     0.052206930     0.100000000     0.823445660 1 1 1
     0.064546750     0.100000000     0.836260090 1 1 1
     0.076886570     0.100000000     0.849074510 1 1 1
     0.089226390     0.100000000     0.861888940 1 1 1
     0.101566210     0.100000000     0.874703370 1 1 1
     0.113906030     0.100000000     0.887517800 1 1 1
     0.126245850     0.100000000     0.900332230 1 1 1
     0.138585670     0.100000000     0.913146650 1 1 1
     0.150925490     0.100000000     0.925961080 1 1 1
     0.163265310     0.100000000     0.938775510 1 1 1
     0.175605130     0.100000000     0.951589940 1 1 1
     0.187944950     0.100000000     0.964404370 1 1 1
     0.200284770     0.100000000     0.977218790 1 1 1
     0.212624580     0.100000000     0.990033220 1 1 1
     0.003322260     0.100000000     0.734219270 1 1 1
     0.015662080     0.100000000     0.747033700 1 1 1
     0.028001900     0.100000000     0.759848130 1 1 1
     0.040341720     0.100000000     0.772662550 1 1 1
     0.052681540     0.100000000     0.785476980 1 1 1
     0.065021360     0.100000000     0.798291410 1 1 1
     0.077361180     0.100000000     0.811105840 1 1 1
     0.089701000     0.100000000     0.823920270 1 1 1
     0.102040820     0.100000000     0.836734690 1 1 1
     0.114380640     0.100000000     0.849549120 1 1 1
     0.126720460     0.100000000     0.862363550 1 1 1
     0.139060280     0.100000000     0.875177980 1 1 1
     0.151400090     0.100000000     0.887992410 1 1 1
     0.163739910     0.100000000     0.900806830 1 1 1
     0.176079730     0.100000000     0.913621260 1 1 1
     0.188419550     0.100000000     0.926435690 1 1 1
     0.200759370     0.100000000     0.939250120 1 1 1
     0.213099190     0.100000000     0.952064550 1 1 1
     0.225439010     0.100000000     0.964878970 1 1 1
     0.237778830     0.100000000     0.977693400 1 1 1
     0.250118650     0.100000000     0.990507830 1 1 1
     0.003796870     0.100000000     0.696250590 1 1 1
     0.016136690     0.100000000     0.709065020 1 1 1
     0.028476510     0.100000000     0.721879450 1 1 1
     0.040816330     0.100000000     0.734693880 1 1 1
     0.053156150     0.100000000     0.747508310 1 1 1
     0.065495970     0.100000000     0.760322730 1 1 1
     0.077835790     0.100000000     0.773137160 1 1 1
     0.090175610     0.100000000     0.785951590 1 1 1
     0.102515420     0.100000000     0.798766020 1 1 1
     0.114855240     0.100000000     0.811580450 1 1 1
     0.127195060     0.100000000     0.824394870 1 1 1
     0.139534880     0.100000000     0.837209300 1 1 1
     0.151874700     0.100000000     0.850023730 1 1 1
     0.164214520     0.100000000     0.862838160 1 1 1
     0.176554340     0.100000000     0.875652590 1 1 1
     0.188894160     0.100000000     0.888467010 1 1 1
     0.201233980     0.100000000     0.901281440 1 1 1
     0.213573800     0.100000000     0.914095870 1 1 1
     0.225913620     0.100000000     0.926910300 1 1 1
     0.238253440     0.100000000     0.939724730 1 1 1
     0.250593260     0.100000000     0.952539160 1 1 1
     0.262933080     0.100000000     0.965353580 1 1 1
     0.275272900     0.100000000     0.978168010 1 1 1
     0.287612720     0.100000000     0.990982440 1 1 1
     0.004271480     0.100000000     0.658281920 1 1 1
     0.016611300     0.100000000     0.671096350 1 1 1
     0.028951120     0.100000000     0.683910770 1 1 1
     0.041290930     0.100000000     0.696725200 1 1 1
     0.053630750     0.100000000     0.709539630 1 1 1
     0.065970570     0.100000000     0.722354060 1 1 1
     0.078310390     0.100000000     0.735168490 1 1 1
     0.090650210     0.100000000     0.747982910 1 1 1
     0.102990030     0.100000000     0.760797340 1 1 1
     0.115329850     0.100000000     0.773611770 1 1 1
     0.127669670     0.100000000     0.786426200 1 1 1
     0.140009490     0.100000000     0.799240630 1 1 1
     0.152349310     0.100000000     0.812055050 1 1 1
     0.164689130     0.100000000     0.824869480 1 1 1
     0.177028950     0.100000000     0.837683910 1 1 1
     0.189368770     0.100000000     0.850498340 1 1 1
     0.201708590     0.100000000     0.863312770 1 1 1
     0.214048410     0.100000000     0.876127200 1 1 1
     0.226388230     0.100000000     0.888941620 1 1 1
     0.238728050     0.100000000     0.901756050 1 1 1
     0.251067870     0.100000000     0.914570480 1 1 1
     0.263407690     0.100000000     0.927384910 1 1 1
     0.275747510     0.100000000     0.940199340 1 1 1
     0.288087330     0.100000000     0.953013760 1 1 1
     0.300427150     0.100000000     0.965828190 1 1 1
     0.312766970     0.100000000     0.978642620 1 1 1
     0.325106790     0.100000000     0.991457050 1 1 1
     0.004746080     0.100000000     0.620313240 1 1 1
     0.017085900     0.100000000     0.633127670 1 1 1
     0.029425720     0.100000000     0.645942100 1 1 1
     0.041765540     0.100000000     0.658756530 1 1 1
     0.054105360     0.100000000     0.671570950 1 1 1
     0.066445180     0.100000000     0.684385380 1 1 1
     0.078785000     0.100000000     0.697199810 1 1 1
     0.091124820     0.100000000     0.710014240 1 1 1
     0.103464640     0.100000000     0.722828670 1 1 1
     0.115804460     0.100000000     0.735643090 1 1 1
     0.128144280     0.100000000     0.748457520 1 1 1
     0.140484100     0.100000000     0.761271950 1 1 1
     0.152823920     0.100000000     0.774086380 1 1 1
     0.165163740     0.100000000     0.786900810 1 1 1
     0.177503560     0.100000000     0.799715230 1 1 1
     0.189843380     0.100000000     0.812529660 1 1 1
     0.202183200     0.100000000     0.825344090 1 1 1
     0.214523020     0.100000000     0.838158520 1 1 1
     0.226862840     0.100000000     0.850972950 1 1 1
     0.239202660     0.100000000     0.863787380 1 1 1
     0.251542480     0.100000000     0.876601800 1 1 1
     0.263882300     0.100000000     0.889416230 1 1 1
     0.276222120     0.100000000     0.902230660 1 1 1
     0.288561940     0.100000000     0.915045090 1 1 1
     0.300901760     0.100000000     0.927859520 1 1 1
     0.313241580     0.100000000     0.940673940 1 1 1
     0.325581400     0.100000000     0.953488370 1 1 1
     0.337921210     0.100000000     0.966302800 1 1 1
     0.350261030     0.100000000     0.979117230 1 1 1
     0.362600850     0.100000000     0.991931660 1 1 1
     0.005220690     0.100000000     0.582344570 1 1 1
     0.017560510     0.100000000     0.595158990 1 1 1
     0.029900330     0.100000000     0.607973420 1 1 1
     0.042240150     0.100000000     0.620787850 1 1 1
     0.054579970     0.100000000     0.633602280 1 1 1
     0.066919790     0.100000000     0.646416710 1 1 1
     0.079259610     0.100000000     0.659231130 1 1 1
     0.091599430     0.100000000     0.672045560 1 1 1
     0.103939250     0.100000000     0.684859990 1 1 1
     0.116279070     0.100000000     0.697674420 1 1 1
     0.128618890     0.100000000     0.710488850 1 1 1
     0.140958710     0.100000000     0.723303270 1 1 1
     0.153298530     0.100000000     0.736117700 1 1 1
     0.165638350     0.100000000     0.748932130 1 1 1
     0.177978170     0.100000000     0.761746560 1 1 1
     0.190317990     0.100000000     0.774560990 1 1 1
     0.202657810     0.100000000     0.787375420 1 1 1
     0.214997630     0.100000000     0.800189840 1 1 1
     0.227337450     0.100000000     0.813004270 1 1 1
     0.239677270     0.100000000     0.825818700 1 1 1
     0.252017090     0.100000000     0.838633130 1 1 1
     0.264356910     0.100000000     0.851447560 1 1 1
     0.276696730     0.100000000     0.864261980 1 1 1
     0.289036540     0.100000000     0.877076410 1 1 1
     0.301376360     0.100000000     0.889890840 1 1 1
     0.313716180     0.100000000     0.902705270 1 1 1
     0.326056000     0.100000000     0.915519700 1 1 1
     0.338395820     0.100000000     0.928334120 1 1 1
     0.350735640     0.100000000     0.941148550 1 1 1
     0.363075460     0.100000000     0.953962980 1 1 1
     0.375415280     0.100000000     0.966777410 1 1 1
     0.387755100     0.100000000     0.979591840 1 1 1
     0.400094920     0.100000000     0.992406260 1 1 1
     0.005695300     0.100000000     0.544375890 1 1 1
     0.018035120     0.100000000     0.557190320 1 1 1
     0.030374940     0.100000000     0.570004750 1 1 1
     0.042714760     0.100000000     0.582819170 1 1 1
     0.055054580     0.100000000     0.595633600 1 1 1
     0.067394400     0.100000000     0.608448030 1 1 1
     0.079734220     0.100000000     0.621262460 1 1 1
     0.092074040     0.100000000     0.634076890 1 1 1
     0.104413860     0.100000000     0.646891310 1 1 1
     0.116753680     0.100000000     0.659705740 1 1 1
     0.129093500     0.100000000     0.672520170 1 1 1
     0.141433320     0.100000000     0.685334600 1 1 1
     0.153773140     0.100000000     0.698149030 1 1 1
     0.166112960     0.100000000     0.710963460 1 1 1
     0.178452780     0.100000000     0.723777880 1 1 1
     0.190792600     0.100000000     0.736592310 1 1 1
     0.203132420     0.100000000     0.749406740 1 1 1
     0.215472240     0.100000000     0.762221170 1 1 1
     0.227812060     0.100000000     0.775035600 1 1 1
     0.240151870     0.100000000     0.787850020 1 1 1
     0.252491690     0.100000000     0.800664450 1 1 1
     0.264831510     0.100000000     0.813478880 1 1 1
     0.277171330     0.100000000     0.826293310 1 1 1
     0.289511150     0.100000000     0.839107740 1 1 1
     0.301850970     0.100000000     0.851922160 1 1 1
     0.314190790     0.100000000     0.864736590 1 1 1
     0.326530610     0.100000000     0.877551020 1 1 1
     0.338870430     0.100000000     0.890365450 1 1 1
     0.351210250     0.100000000     0.903179880 1 1 1
     0.363550070     0.100000000     0.915994300 1 1 1
     0.375889890     0.100000000     0.928808730 1 1 1
     0.388229710     0.100000000     0.941623160 1 1 1
     0.400569530     0.100000000     0.954437590 1 1 1
     0.412909350     0.100000000     0.967252020 1 1 1
     0.425249170     0.100000000     0.980066450 1 1 1
     0.437588990     0.100000000     0.992880870 1 1 1
     0.006169910     0.100000000     0.506407210 1 1 1
     0.018509730     0.100000000     0.519221640 1 1 1
     0.030849550     0.100000000     0.532036070 1 1 1
     0.043189370     0.100000000     0.544850500 1 1 1
     0.055529190     0.100000000     0.557664930 1 1 1
     0.067869010     0.100000000     0.570479350 1 1 1
     0.080208830     0.100000000     0.583293780 1 1 1
     0.092548650     0.100000000     0.596108210 1 1 1
     0.104888470     0.100000000     0.608922640 1 1 1
     0.117228290     0.100000000     0.621737070 1 1 1
     0.129568110     0.100000000     0.634551500 1 1 1
     0.141907930     0.100000000     0.647365920 1 1 1
     0.154247750     0.100000000     0.660180350 1 1 1
     0.166587570     0.100000000     0.672994780 1 1 1
     0.178927380     0.100000000     0.685809210 1 1 1
     0.191267200     0.100000000     0.698623640 1 1 1
     0.203607020     0.100000000     0.711438060 1 1 1
     0.215946840     0.100000000     0.724252490 1 1 1
     0.228286660     0.100000000     0.737066920 1 1 1
     0.240626480     0.100000000     0.749881350 1 1 1
     0.252966300     0.100000000     0.762695780 1 1 1
     0.265306120     0.100000000     0.775510200 1 1 1
     0.277645940     0.100000000     0.788324630 1 1 1
     0.289985760     0.100000000     0.801139060 1 1 1
     0.302325580     0.100000000     0.813953490 1 1 1
     0.314665400     0.100000000     0.826767920 1 1 1
     0.327005220     0.100000000     0.839582340 1 1 1
     0.339345040     0.100000000     0.852396770 1 1 1
     0.351684860     0.100000000     0.865211200 1 1 1
     0.364024680     0.100000000     0.878025630 1 1 1
     0.376364500     0.100000000     0.890840060 1 1 1
     0.388704320     0.100000000     0.903654490 1 1 1
     0.401044140     0.100000000     0.916468910 1 1 1
     0.413383960     0.100000000     0.929283340 1 1 1
     0.425723780     0.100000000     0.942097770 1 1 1
     0.438063600     0.100000000     0.954912200 1 1 1
     0.450403420     0.100000000     0.967726630 1 1 1
     0.462743240     0.100000000     0.980541050 1 1 1
     0.475083060     0.100000000     0.993355480 1 1 1
     0.006644520     0.100000000     0.468438540 1 1 1
     0.018984340     0.100000000     0.481252970 1 1 1
     0.031324160     0.100000000     0.494067390 1 1 1
     0.043663980     0.100000000     0.506881820 1 1 1
     0.056003800     0.100000000     0.519696250 1 1 1
     0.068343620     0.100000000     0.532510680 1 1 1
     0.080683440     0.100000000     0.545325110 1 1 1
     0.093023260     0.100000000     0.558139530 1 1 1
     0.105363080     0.100000000     0.570953960 1 1 1
     0.117702900     0.100000000     0.583768390 1 1 1
     0.130042710     0.100000000     0.596582820 1 1 1
     0.142382530     0.100000000     0.609397250 1 1 1
     0.154722350     0.100000000     0.622211680 1 1 1
     0.167062170     0.100000000     0.635026100 1 1 1
     0.179401990     0.100000000     0.647840530 1 1 1
     0.191741810     0.100000000     0.660654960 1 1 1
     0.204081630     0.100000000     0.673469390 1 1 1
     0.216421450     0.100000000     0.686283820 1 1 1
     0.228761270     0.100000000     0.699098240 1 1 1
     0.241101090     0.100000000     0.711912670 1 1 1
     0.253440910     0.100000000     0.724727100 1 1 1
     0.265780730     0.100000000     0.737541530 1 1 1
     0.278120550     0.100000000     0.750355960 1 1 1
     0.290460370     0.100000000     0.763170380 1 1 1
     0.302800190     0.100000000     0.775984810 1 1 1
     0.315140010     0.100000000     0.788799240 1 1 1
     0.327479830     0.100000000     0.801613670 1 1 1
     0.339819650     0.100000000     0.814428100 1 1 1
     0.352159470     0.100000000     0.827242520 1 1 1
     0.364499290     0.100000000     0.840056950 1 1 1
     0.376839110     0.100000000     0.852871380 1 1 1
     0.389178930     0.100000000     0.865685810 1 1 1
     0.401518750     0.100000000     0.878500240 1 1 1
     0.413858570     0.100000000     0.891314670 1 1 1
     0.426198390     0.100000000     0.904129090 1 1 1
     0.438538210     0.100000000     0.916943520 1 1 1
     0.450878030     0.100000000     0.929757950 1 1 1
     0.463217850     0.100000000     0.942572380 1 1 1
     0.475557660     0.100000000     0.955386810 1 1 1
     0.487897480     0.100000000     0.968201230 1 1 1
     0.500237300     0.100000000     0.981015660 1 1 1
     0.512577120     0.100000000     0.993830090 1 1 1
     0.007119130     0.100000000     0.430469860 1 1 1
     0.019458950     0.100000000     0.443284290 1 1 1
     0.031798770     0.100000000     0.456098720 1 1 1
     0.044138590     0.100000000     0.468913150 1 1 1
     0.056478410     0.100000000     0.481727570 1 1 1
     0.068818220     0.100000000     0.494542000 1 1 1
     0.081158040     0.100000000     0.507356430 1 1 1
     0.093497860     0.100000000     0.520170860 1 1 1
     0.105837680     0.100000000     0.532985290 1 1 1
     0.118177500     0.100000000     0.545799720 1 1 1
     0.130517320     0.100000000     0.558614140 1 1 1
     0.142857140     0.100000000     0.571428570 1 1 1
     0.155196960     0.100000000     0.584243000 1 1 1
     0.167536780     0.100000000     0.597057430 1 1 1
     0.179876600     0.100000000     0.609871860 1 1 1
     0.192216420     0.100000000     0.622686280 1 1 1
     0.204556240     0.100000000     0.635500710 1 1 1
     0.216896060     0.100000000     0.648315140 1 1 1
     0.229235880     0.100000000     0.661129570 1 1 1
     0.241575700     0.100000000     0.673944000 1 1 1
     0.253915520     0.100000000     0.686758420 1 1 1
     0.266255340     0.100000000     0.699572850 1 1 1
     0.278595160     0.100000000     0.712387280 1 1 1
     0.290934980     0.100000000     0.725201710 1 1 1
     0.303274800     0.100000000     0.738016140 1 1 1
     0.315614620     0.100000000     0.750830560 1 1 1
     0.327954440     0.100000000     0.763644990 1 1 1
     0.340294260     0.100000000     0.776459420 1 1 1
     0.352634080     0.100000000     0.789273850 1 1 1
     0.364973900     0.100000000     0.802088280 1 1 1
     0.377313720     0.100000000     0.814902710 1 1 1
     0.389653540     0.100000000     0.827717130 1 1 1
     0.401993360     0.100000000     0.840531560 1 1 1
     0.414333180     0.100000000     0.853345990 1 1 1
     0.426672990     0.100000000     0.866160420 1 1 1
     0.439012810     0.100000000     0.878974850 1 1 1
     0.451352630     0.100000000     0.891789270 1 1 1
     0.463692450     0.100000000     0.904603700 1 1 1
     0.476032270     0.100000000     0.917418130 1 1 1
     0.488372090     0.100000000     0.930232560 1 1 1
     0.500711910     0.100000000     0.943046990 1 1 1
     0.513051730     0.100000000     0.955861410 1 1 1
     0.525391550     0.100000000     0.968675840 1 1 1
     0.537731370     0.100000000     0.981490270 1 1 1
     0.550071190     0.100000000     0.994304700 1 1 1
     0.007593740     0.100000000     0.392501190 1 1 1
     0.019933550     0.100000000     0.405315610 1 1 1
     0.032273370     0.100000000     0.418130040 1 1 1
     0.044613190     0.100000000     0.430944470 1 1 1
     0.056953010     0.100000000     0.443758900 1 1 1
     0.069292830     0.100000000     0.456573330 1 1 1
     0.081632650     0.100000000     0.469387760 1 1 1
     0.093972470     0.100000000     0.482202180 1 1 1
     0.106312290     0.100000000     0.495016610 1 1 1
     0.118652110     0.100000000     0.507831040 1 1 1
     0.130991930     0.100000000     0.520645470 1 1 1
     0.143331750     0.100000000     0.533459900 1 1 1
     0.155671570     0.100000000     0.546274320 1 1 1
     0.168011390     0.100000000     0.559088750 1 1 1
     0.180351210     0.100000000     0.571903180 1 1 1
     0.192691030     0.100000000     0.584717610 1 1 1
     0.205030850     0.100000000     0.597532040 1 1 1
     0.217370670     0.100000000     0.610346460 1 1 1
     0.229710490     0.100000000     0.623160890 1 1 1
     0.242050310     0.100000000     0.635975320 1 1 1
     0.254390130     0.100000000     0.648789750 1 1 1
     0.266729950     0.100000000     0.661604180 1 1 1
     0.279069770     0.100000000     0.674418600 1 1 1
     0.291409590     0.100000000     0.687233030 1 1 1
     0.303749410     0.100000000     0.700047460 1 1 1
     0.316089230     0.100000000     0.712861890 1 1 1
     0.328429050     0.100000000     0.725676320 1 1 1
     0.340768870     0.100000000     0.738490750 1 1 1
     0.353108690     0.100000000     0.751305170 1 1 1
     0.365448500     0.100000000     0.764119600 1 1 1
     0.377788320     0.100000000     0.776934030 1 1 1
     0.390128140     0.100000000     0.789748460 1 1 1
     0.402467960     0.100000000     0.802562890 1 1 1
     0.414807780     0.100000000     0.815377310 1 1 1
     0.427147600     0.100000000     0.828191740 1 1 1
     0.439487420     0.100000000     0.841006170 1 1 1
     0.451827240     0.100000000     0.853820600 1 1 1
     0.464167060     0.100000000     0.866635030 1 1 1
     0.476506880     0.100000000     0.879449450 1 1 1
     0.488846700     0.100000000     0.892263880 1 1 1
     0.501186520     0.100000000     0.905078310 1 1 1
     0.513526340     0.100000000     0.917892740 1 1 1
     0.525866160     0.100000000     0.930707170 1 1 1
     0.538205980     0.100000000     0.943521590 1 1 1
     0.550545800     0.100000000     0.956336020 1 1 1
     0.562885620     0.100000000     0.969150450 1 1 1
     0.575225440     0.100000000     0.981964880 1 1 1
     0.587565260     0.100000000     0.994779310 1 1 1
     0.008068340     0.100000000     0.354532510 1 1 1
     0.020408160     0.100000000     0.367346940 1 1 1
     0.032747980     0.100000000     0.380161370 1 1 1
     0.045087800     0.100000000     0.392975790 1 1 1
     0.057427620     0.100000000     0.405790220 1 1 1
     0.069767440     0.100000000     0.418604650 1 1 1
     0.082107260     0.100000000     0.431419080 1 1 1
     0.094447080     0.100000000     0.444233510 1 1 1
     0.106786900     0.100000000     0.457047940 1 1 1
     0.119126720     0.100000000     0.469862360 1 1 1
     0.131466540     0.100000000     0.482676790 1 1 1
     0.143806360     0.100000000     0.495491220 1 1 1
     0.156146180     0.100000000     0.508305650 1 1 1
     0.168486000     0.100000000     0.521120080 1 1 1
     0.180825820     0.100000000     0.533934500 1 1 1
     0.193165640     0.100000000     0.546748930 1 1 1
     0.205505460     0.100000000     0.559563360 1 1 1
     0.217845280     0.100000000     0.572377790 1 1 1
     0.230185100     0.100000000     0.585192220 1 1 1
     0.242524920     0.100000000     0.598006640 1 1 1
     0.254864740     0.100000000     0.610821070 1 1 1
     0.267204560     0.100000000     0.623635500 1 1 1
     0.279544380     0.100000000     0.636449930 1 1 1
     0.291884200     0.100000000     0.649264360 1 1 1
     0.304224020     0.100000000     0.662078790 1 1 1
     0.316563830     0.100000000     0.674893210 1 1 1
     0.328903650     0.100000000     0.687707640 1 1 1
     0.341243470     0.100000000     0.700522070 1 1 1
     0.353583290     0.100000000     0.713336500 1 1 1
     0.365923110     0.100000000     0.726150930 1 1 1
     0.378262930     0.100000000     0.738965350 1 1 1
     0.390602750     0.100000000     0.751779780 1 1 1
     0.402942570     0.100000000     0.764594210 1 1 1
     0.415282390     0.100000000     0.777408640 1 1 1
     0.427622210     0.100000000     0.790223070 1 1 1
     0.439962030     0.100000000     0.803037490 1 1 1
     0.452301850     0.100000000     0.815851920 1 1 1
     0.464641670     0.100000000     0.828666350 1 1 1
     0.476981490     0.100000000     0.841480780 1 1 1
     0.489321310     0.100000000     0.854295210 1 1 1
     0.501661130     0.100000000     0.867109630 1 1 1
     0.514000950     0.100000000     0.879924060 1 1 1
     0.526340770     0.100000000     0.892738490 1 1 1
     0.538680590     0.100000000     0.905552920 1 1 1
     0.551020410     0.100000000     0.918367350 1 1 1
     0.563360230     0.100000000     0.931181780 1 1 1
     0.575700050     0.100000000     0.943996200 1 1 1
     0.588039870     0.100000000     0.956810630 1 1 1
     0.600379690     0.100000000     0.969625060 1 1 1
     0.612719510     0.100000000     0.982439490 1 1 1
     0.625059330     0.100000000     0.995253920 1 1 1
     0.008542950     0.100000000     0.316563830 1 1 1
     0.020882770     0.100000000     0.329378260 1 1 1
     0.033222590     0.100000000     0.342192690 1 1 1
     0.045562410     0.100000000     0.355007120 1 1 1
     0.057902230     0.100000000     0.367821550 1 1 1
     0.070242050     0.100000000     0.380635980 1 1 1
     0.082581870     0.100000000     0.393450400 1 1 1
     0.094921690     0.100000000     0.406264830 1 1 1
     0.107261510     0.100000000     0.419079260 1 1 1
     0.119601330     0.100000000     0.431893690 1 1 1
     0.131941150     0.100000000     0.444708120 1 1 1
     0.144280970     0.100000000     0.457522540 1 1 1
     0.156620790     0.100000000     0.470336970 1 1 1
     0.168960610     0.100000000     0.483151400 1 1 1
     0.181300430     0.100000000     0.495965830 1 1 1
     0.193640250     0.100000000     0.508780260 1 1 1
     0.205980070     0.100000000     0.521594680 1 1 1
     0.218319890     0.100000000     0.534409110 1 1 1
     0.230659710     0.100000000     0.547223540 1 1 1
     0.242999530     0.100000000     0.560037970 1 1 1
     0.255339350     0.100000000     0.572852400 1 1 1
     0.267679160     0.100000000     0.585666820 1 1 1
     0.280018980     0.100000000     0.598481250 1 1 1
     0.292358800     0.100000000     0.611295680 1 1 1
     0.304698620     0.100000000     0.624110110 1 1 1
     0.317038440     0.100000000     0.636924540 1 1 1
     0.329378260     0.100000000     0.649738970 1 1 1
     0.341718080     0.100000000     0.662553390 1 1 1
     0.354057900     0.100000000     0.675367820 1 1 1
     0.366397720     0.100000000     0.688182250 1 1 1
     0.378737540     0.100000000     0.700996680 1 1 1
     0.391077360     0.100000000     0.713811110 1 1 1
     0.403417180     0.100000000     0.726625530 1 1 1
     0.415757000     0.100000000     0.739439960 1 1 1
     0.428096820     0.100000000     0.752254390 1 1 1
     0.440436640     0.100000000     0.765068820 1 1 1
     0.452776460     0.100000000     0.777883250 1 1 1
     0.465116280     0.100000000     0.790697670 1 1 1
     0.477456100     0.100000000     0.803512100 1 1 1
     0.489795920     0.100000000     0.816326530 1 1 1
     0.502135740     0.100000000     0.829140960 1 1 1
     0.514475560     0.100000000     0.841955390 1 1 1
     0.526815380     0.100000000     0.854769810 1 1 1
     0.539155200     0.100000000     0.867584240 1 1 1
     0.551495020     0.100000000     0.880398670 1 1 1
     0.563834840     0.100000000     0.893213100 1 1 1
     0.576174660     0.100000000     0.906027530 1 1 1
     0.588514480     0.100000000     0.918841960 1 1 1
     0.600854300     0.100000000     0.931656380 1 1 1
     0.613194110     0.100000000     0.944470810 1 1 1
     0.625533930     0.100000000     0.957285240 1 1 1
     0.637873750     0.100000000     0.970099670 1 1 1
     0.650213570     0.100000000     0.982914100 1 1 1
     0.662553390     0.100000000     0.995728520 1 1 1
     0.009017560     0.100000000     0.278595160 1 1 1
     0.021357380     0.100000000     0.291409590 1 1 1
     0.033697200     0.100000000     0.304224020 1 1 1
     0.046037020     0.100000000     0.317038440 1 1 1
     0.058376840     0.100000000     0.329852870 1 1 1
     0.070716660     0.100000000     0.342667300 1 1 1
     0.083056480     0.100000000     0.355481730 1 1 1
     0.095396300     0.100000000     0.368296160 1 1 1
     0.107736120     0.100000000     0.381110580 1 1 1
     0.120075940     0.100000000     0.393925010 1 1 1
     0.132415760     0.100000000     0.406739440 1 1 1
     0.144755580     0.100000000     0.419553870 1 1 1
     0.157095400     0.100000000     0.432368300 1 1 1
     0.169435220     0.100000000     0.445182720 1 1 1
     0.181775040     0.100000000     0.457997150 1 1 1
     0.194114860     0.100000000     0.470811580 1 1 1
     0.206454670     0.100000000     0.483626010 1 1 1
     0.218794490     0.100000000     0.496440440 1 1 1
     0.231134310     0.100000000     0.509254860 1 1 1
     0.243474130     0.100000000     0.522069290 1 1 1
     0.255813950     0.100000000     0.534883720 1 1 1
     0.268153770     0.100000000     0.547698150 1 1 1
     0.280493590     0.100000000     0.560512580 1 1 1
     0.292833410     0.100000000     0.573327010 1 1 1
     0.305173230     0.100000000     0.586141430 1 1 1
     0.317513050     0.100000000     0.598955860 1 1 1