ATOMIC_SPECIES
C 6.000 ./C_ONCV_PBE-1.0.upf

NUMERICAL_ORBITAL
./C_gga_8au_100Ry_2s2p1d.orb

LATTICE_CONSTANT
1.889716

LATTICE_VECTORS
       57.79825000       31.94984221       0.00000000
       1.22975000       66.02967390       0.00000000
       0.00000000       0.00000000       30.00000000

ATOMIC_POSITIONS
Direct

C
0.0
2884
     0.00138696     0.93481276     0.10000000 1 1 1
     0.02219140     0.95700416     0.10000000 1 1 1
     0.04299584     0.97919556     0.10000000 1 1 1
     0.00277393     0.86962552     0.10000000 1 1 1
     0.02357836     0.89181692     0.10000000 1 1 1
     0.04438280     0.91400832     0.10000000 1 1 1
     0.06518724     0.93619972     0.10000000 1 1 1
     0.08599168     0.95839112     0.10000000 1 1 1
     0.10679612     0.98058252     0.10000000 1 1 1
     0.00416089     0.80443828     0.10000000 1 1 1
     0.02496533     0.82662968     0.10000000 1 1 1
     0.04576976     0.84882108     0.10000000 1 1 1
     0.06657420     0.87101248     0.10000000 1 1 1
     0.08737864     0.89320388     0.10000000 1 1 1
     0.10818308     0.91539528     0.10000000 1 1 1
     0.12898752     0.93758669     0.10000000 1 1 1
     0.14979196     0.95977809     0.10000000 1 1 1
     0.17059639     0.98196949     0.10000000 1 1 1
     0.00554785     0.73925104     0.10000000 1 1 1
     0.02635229     0.76144244     0.10000000 1 1 1
     0.04715673     0.78363384     0.10000000 1 1 1
     0.06796117     0.80582524     0.10000000 1 1 1
     0.08876560     0.82801664     0.10000000 1 1 1
     0.10957004     0.85020804     0.10000000 1 1 1
     0.13037448     0.87239945     0.10000000 1 1 1
     0.15117892     0.89459085     0.10000000 1 1 1
     0.17198336     0.91678225     0.10000000 1 1 1
     0.19278779     0.93897365     0.10000000 1 1 1
     0.21359223     0.96116505     0.10000000 1 1 1
     0.23439667     0.98335645     0.10000000 1 1 1
     0.00693481     0.67406380     0.10000000 1 1 1
     0.02773925     0.69625520     0.10000000 1 1 1
     0.04854369     0.71844660     0.10000000 1 1 1
     0.06934813     0.74063800     0.10000000 1 1 1
     0.09015257     0.76282940     0.10000000 1 1 1
     0.11095700     0.78502080     0.10000000 1 1 1
     0.13176144     0.80721221     0.10000000 1 1 1
     0.15256588     0.82940361     0.10000000 1 1 1
     0.17337032     0.85159501     0.10000000 1 1 1
     0.19417476     0.87378641     0.10000000 1 1 1
     0.21497920     0.89597781     0.10000000 1 1 1
     0.23578363     0.91816921     0.10000000 1 1 1
     0.25658807     0.94036061     0.10000000 1 1 1
     0.27739251     0.96255201     0.10000000 1 1 1
     0.29819695     0.98474341     0.10000000 1 1 1
     0.00832178     0.60887656     0.10000000 1 1 1
     0.02912621     0.63106796     0.10000000 1 1 1
     0.04993065     0.65325936     0.10000000 1 1 1
     0.07073509     0.67545076     0.10000000 1 1 1
     0.09153953     0.69764216     0.10000000 1 1 1
     0.11234397     0.71983356     0.10000000 1 1 1
     0.13314840     0.74202497     0.10000000 1 1 1
     0.15395284     0.76421637     0.10000000 1 1 1
     0.17475728     0.78640777     0.10000000 1 1 1
     0.19556172     0.80859917     0.10000000 1 1 1
     0.21636616     0.83079057     0.10000000 1 1 1
     0.23717060     0.85298197     0.10000000 1 1 1
     0.25797503     0.87517337     0.10000000 1 1 1
     0.27877947     0.89736477     0.10000000 1 1 1
     0.29958391     0.91955617     0.10000000 1 1 1
     0.32038835     0.94174757     0.10000000 1 1 1
     0.34119279     0.96393897     0.10000000 1 1 1
     0.36199723     0.98613037     0.10000000 1 1 1
     0.00970874     0.54368932     0.10000000 1 1 1
     0.03051318     0.56588072     0.10000000 1 1 1
     0.05131761     0.58807212     0.10000000 1 1 1
     0.07212205     0.61026352     0.10000000 1 1 1
     0.09292649     0.63245492     0.10000000 1 1 1
     0.11373093     0.65464632     0.10000000 1 1 1
     0.13453537     0.67683773     0.10000000 1 1 1
     0.15533981     0.69902913     0.10000000 1 1 1
     0.17614424     0.72122053     0.10000000 1 1 1
     0.19694868     0.74341193     0.10000000 1 1 1
     0.21775312     0.76560333     0.10000000 1 1 1
     0.23855756     0.78779473     0.10000000 1 1 1
     0.25936200     0.80998613     0.10000000 1 1 1
     0.28016644     0.83217753     0.10000000 1 1 1
     0.30097087     0.85436893     0.10000000 1 1 1
     0.32177531     0.87656033     0.10000000 1 1 1
     0.34257975     0.89875173     0.10000000 1 1 1
     0.36338419     0.92094313     0.10000000 1 1 1
     0.38418863     0.94313454     0.10000000 1 1 1
     0.40499307     0.96532594     0.10000000 1 1 1
     0.42579750     0.98751734     0.10000000 1 1 1
     0.01109570     0.47850208     0.10000000 1 1 1
     0.03190014     0.50069348     0.10000000 1 1 1
     0.05270458     0.52288488     0.10000000 1 1 1
     0.07350902     0.54507628     0.10000000 1 1 1
     0.09431345     0.56726768     0.10000000 1 1 1
     0.11511789     0.58945908     0.10000000 1 1 1
     0.13592233     0.61165049     0.10000000 1 1 1
     0.15672677     0.63384189     0.10000000 1 1 1
     0.17753121     0.65603329     0.10000000 1 1 1
     0.19833564     0.67822469     0.10000000 1 1 1
     0.21914008     0.70041609     0.10000000 1 1 1
     0.23994452     0.72260749     0.10000000 1 1 1
     0.26074896     0.74479889     0.10000000 1 1 1
     0.28155340     0.76699029     0.10000000 1 1 1
     0.30235784     0.78918169     0.10000000 1 1 1
     0.32316227     0.81137309     0.10000000 1 1 1
     0.34396671     0.83356449     0.10000000 1 1 1
     0.36477115     0.85575589     0.10000000 1 1 1
     0.38557559     0.87794730     0.10000000 1 1 1
     0.40638003     0.90013870     0.10000000 1 1 1
     0.42718447     0.92233010     0.10000000 1 1 1
     0.44798890     0.94452150     0.10000000 1 1 1
     0.46879334     0.96671290     0.10000000 1 1 1
     0.48959778     0.98890430     0.10000000 1 1 1
     0.01248266     0.41331484     0.10000000 1 1 1
     0.03328710     0.43550624     0.10000000 1 1 1
     0.05409154     0.45769764     0.10000000 1 1 1
     0.07489598     0.47988904     0.10000000 1 1 1
     0.09570042     0.50208044     0.10000000 1 1 1
     0.11650485     0.52427184     0.10000000 1 1 1
     0.13730929     0.54646325     0.10000000 1 1 1
     0.15811373     0.56865465     0.10000000 1 1 1
     0.17891817     0.59084605     0.10000000 1 1 1
     0.19972261     0.61303745     0.10000000 1 1 1
     0.22052705     0.63522885     0.10000000 1 1 1
     0.24133148     0.65742025     0.10000000 1 1 1
     0.26213592     0.67961165     0.10000000 1 1 1
     0.28294036     0.70180305     0.10000000 1 1 1
     0.30374480     0.72399445     0.10000000 1 1 1
     0.32454924     0.74618585     0.10000000 1 1 1
     0.34535368     0.76837725     0.10000000 1 1 1
     0.36615811     0.79056865     0.10000000 1 1 1
     0.38696255     0.81276006     0.10000000 1 1 1
     0.40776699     0.83495146     0.10000000 1 1 1
     0.42857143     0.85714286     0.10000000 1 1 1
     0.44937587     0.87933426     0.10000000 1 1 1
     0.47018031     0.90152566     0.10000000 1 1 1
     0.49098474     0.92371706     0.10000000 1 1 1
     0.51178918     0.94590846     0.10000000 1 1 1
     0.53259362     0.96809986     0.10000000 1 1 1
     0.55339806     0.99029126     0.10000000 1 1 1
     0.01386963     0.34812760     0.10000000 1 1 1
     0.03467406     0.37031900     0.10000000 1 1 1
     0.05547850     0.39251040     0.10000000 1 1 1
     0.07628294     0.41470180     0.10000000 1 1 1
     0.09708738     0.43689320     0.10000000 1 1 1
     0.11789182     0.45908460     0.10000000 1 1 1
     0.13869626     0.48127601     0.10000000 1 1 1
     0.15950069     0.50346741     0.10000000 1 1 1
     0.18030513     0.52565881     0.10000000 1 1 1
     0.20110957     0.54785021     0.10000000 1 1 1
     0.22191401     0.57004161     0.10000000 1 1 1
     0.24271845     0.59223301     0.10000000 1 1 1
     0.26352288     0.61442441     0.10000000 1 1 1
     0.28432732     0.63661581     0.10000000 1 1 1
     0.30513176     0.65880721     0.10000000 1 1 1
     0.32593620     0.68099861     0.10000000 1 1 1
     0.34674064     0.70319001     0.10000000 1 1 1
     0.36754508     0.72538141     0.10000000 1 1 1
     0.38834951     0.74757282     0.10000000 1 1 1
     0.40915395     0.76976422     0.10000000 1 1 1
     0.42995839     0.79195562     0.10000000 1 1 1
     0.45076283     0.81414702     0.10000000 1 1 1
     0.47156727     0.83633842     0.10000000 1 1 1
     0.49237171     0.85852982     0.10000000 1 1 1
     0.51317614     0.88072122     0.10000000 1 1 1
     0.53398058     0.90291262     0.10000000 1 1 1
     0.55478502     0.92510402     0.10000000 1 1 1
     0.57558946     0.94729542     0.10000000 1 1 1
     0.59639390     0.96948682     0.10000000 1 1 1
     0.61719834     0.99167822     0.10000000 1 1 1
     0.01525659     0.28294036     0.10000000 1 1 1
     0.03606103     0.30513176     0.10000000 1 1 1
     0.05686546     0.32732316     0.10000000 1 1 1
     0.07766990     0.34951456     0.10000000 1 1 1
     0.09847434     0.37170596     0.10000000 1 1 1
     0.11927878     0.39389736     0.10000000 1 1 1
     0.14008322     0.41608877     0.10000000 1 1 1
     0.16088766     0.43828017     0.10000000 1 1 1
     0.18169209     0.46047157     0.10000000 1 1 1
     0.20249653     0.48266297     0.10000000 1 1 1
     0.22330097     0.50485437     0.10000000 1 1 1
     0.24410541     0.52704577     0.10000000 1 1 1
     0.26490985     0.54923717     0.10000000 1 1 1
     0.28571429     0.57142857     0.10000000 1 1 1
     0.30651872     0.59361997     0.10000000 1 1 1
     0.32732316     0.61581137     0.10000000 1 1 1
     0.34812760     0.63800277     0.10000000 1 1 1
     0.36893204     0.66019417     0.10000000 1 1 1
     0.38973648     0.68238558     0.10000000 1 1 1
     0.41054092     0.70457698     0.10000000 1 1 1
     0.43134535     0.72676838     0.10000000 1 1 1
     0.45214979     0.74895978     0.10000000 1 1 1
     0.47295423     0.77115118     0.10000000 1 1 1
     0.49375867     0.79334258     0.10000000 1 1 1
     0.51456311     0.81553398     0.10000000 1 1 1
     0.53536755     0.83772538     0.10000000 1 1 1
     0.55617198     0.85991678     0.10000000 1 1 1
     0.57697642     0.88210818     0.10000000 1 1 1
     0.59778086     0.90429958     0.10000000 1 1 1
     0.61858530     0.92649098     0.10000000 1 1 1
     0.63938974     0.94868239     0.10000000 1 1 1
     0.66019417     0.97087379     0.10000000 1 1 1
     0.68099861     0.99306519     0.10000000 1 1 1
     0.01664355     0.21775312     0.10000000 1 1 1
     0.03744799     0.23994452     0.10000000 1 1 1
     0.05825243     0.26213592     0.10000000 1 1 1
     0.07905687     0.28432732     0.10000000 1 1 1
     0.09986130     0.30651872     0.10000000 1 1 1
     0.12066574     0.32871012     0.10000000 1 1 1
     0.14147018     0.35090153     0.10000000 1 1 1
     0.16227462     0.37309293     0.10000000 1 1 1
     0.18307906     0.39528433     0.10000000 1 1 1
     0.20388350     0.41747573     0.10000000 1 1 1
     0.22468793     0.43966713     0.10000000 1 1 1
     0.24549237     0.46185853     0.10000000 1 1 1
     0.26629681     0.48404993     0.10000000 1 1 1
     0.28710125     0.50624133     0.10000000 1 1 1
     0.30790569     0.52843273     0.10000000 1 1 1
     0.32871012     0.55062413     0.10000000 1 1 1
     0.34951456     0.57281553     0.10000000 1 1 1
     0.37031900     0.59500693     0.10000000 1 1 1
     0.39112344     0.61719834     0.10000000 1 1 1
     0.41192788     0.63938974     0.10000000 1 1 1
     0.43273232     0.66158114     0.10000000 1 1 1
     0.45353675     0.68377254     0.10000000 1 1 1
     0.47434119     0.70596394     0.10000000 1 1 1
     0.49514563     0.72815534     0.10000000 1 1 1
     0.51595007     0.75034674     0.10000000 1 1 1
     0.53675451     0.77253814     0.10000000 1 1 1
     0.55755895     0.79472954     0.10000000 1 1 1
     0.57836338     0.81692094     0.10000000 1 1 1
     0.59916782     0.83911234     0.10000000 1 1 1
     0.61997226     0.86130374     0.10000000 1 1 1
     0.64077670     0.88349515     0.10000000 1 1 1
     0.66158114     0.90568655     0.10000000 1 1 1
     0.68238558     0.92787795     0.10000000 1 1 1
     0.70319001     0.95006935     0.10000000 1 1 1
     0.72399445     0.97226075     0.10000000 1 1 1
     0.74479889     0.99445215     0.10000000 1 1 1
     0.01803051     0.15256588     0.10000000 1 1 1
     0.03883495     0.17475728     0.10000000 1 1 1
     0.05963939     0.19694868     0.10000000 1 1 1
     0.08044383     0.21914008     0.10000000 1 1 1
     0.10124827     0.24133148     0.10000000 1 1 1
     0.12205270     0.26352288     0.10000000 1 1 1
     0.14285714     0.28571429     0.10000000 1 1 1
     0.16366158     0.30790569     0.10000000 1 1 1
     0.18446602     0.33009709     0.10000000 1 1 1
     0.20527046     0.35228849     0.10000000 1 1 1
     0.22607490     0.37447989     0.10000000 1 1 1
     0.24687933     0.39667129     0.10000000 1 1 1
     0.26768377     0.41886269     0.10000000 1 1 1
     0.28848821     0.44105409     0.10000000 1 1 1
     0.30929265     0.46324549     0.10000000 1 1 1
     0.33009709     0.48543689     0.10000000 1 1 1
     0.35090153     0.50762829     0.10000000 1 1 1
     0.37170596     0.52981969     0.10000000 1 1 1
     0.39251040     0.55201110     0.10000000 1 1 1
     0.41331484     0.57420250     0.10000000 1 1 1
     0.43411928     0.59639390     0.10000000 1 1 1
     0.45492372     0.61858530     0.10000000 1 1 1
     0.47572816     0.64077670     0.10000000 1 1 1
     0.49653259     0.66296810     0.10000000 1 1 1
     0.51733703     0.68515950     0.10000000 1 1 1
     0.53814147     0.70735090     0.10000000 1 1 1
     0.55894591     0.72954230     0.10000000 1 1 1
     0.57975035     0.75173370     0.10000000 1 1 1
     0.60055479     0.77392510     0.10000000 1 1 1
     0.62135922     0.79611650     0.10000000 1 1 1
     0.64216366     0.81830791     0.10000000 1 1 1
     0.66296810     0.84049931     0.10000000 1 1 1
     0.68377254     0.86269071     0.10000000 1 1 1
     0.70457698     0.88488211     0.10000000 1 1 1
     0.72538141     0.90707351     0.10000000 1 1 1
     0.74618585     0.92926491     0.10000000 1 1 1
     0.76699029     0.95145631     0.10000000 1 1 1
     0.78779473     0.97364771     0.10000000 1 1 1
     0.80859917     0.99583911     0.10000000 1 1 1
     0.01941748     0.08737864     0.10000000 1 1 1
     0.04022191     0.10957004     0.10000000 1 1 1
     0.06102635     0.13176144     0.10000000 1 1 1
     0.08183079     0.15395284     0.10000000 1 1 1
     0.10263523     0.17614424     0.10000000 1 1 1
     0.12343967     0.19833564     0.10000000 1 1 1
     0.14424411     0.22052705     0.10000000 1 1 1
     0.16504854     0.24271845     0.10000000 1 1 1
     0.18585298     0.26490985     0.10000000 1 1 1
     0.20665742     0.28710125     0.10000000 1 1 1
     0.22746186     0.30929265     0.10000000 1 1 1
     0.24826630     0.33148405     0.10000000 1 1 1
     0.26907074     0.35367545     0.10000000 1 1 1
     0.28987517     0.37586685     0.10000000 1 1 1
     0.31067961     0.39805825     0.10000000 1 1 1
     0.33148405     0.42024965     0.10000000 1 1 1
     0.35228849     0.44244105     0.10000000 1 1 1
     0.37309293     0.46463245     0.10000000 1 1 1
     0.39389736     0.48682386     0.10000000 1 1 1
     0.41470180     0.50901526     0.10000000 1 1 1
     0.43550624     0.53120666     0.10000000 1 1 1
     0.45631068     0.55339806     0.10000000 1 1 1
     0.47711512     0.57558946     0.10000000 1 1 1
     0.49791956     0.59778086     0.10000000 1 1 1
     0.51872399     0.61997226     0.10000000 1 1 1
     0.53952843     0.64216366     0.10000000 1 1 1
     0.56033287     0.66435506     0.10000000 1 1 1
     0.58113731     0.68654646     0.10000000 1 1 1
     0.60194175     0.70873786     0.10000000 1 1 1
     0.62274619     0.73092926     0.10000000 1 1 1
     0.64355062     0.75312067     0.10000000 1 1 1
     0.66435506     0.77531207     0.10000000 1 1 1
     0.68515950     0.79750347     0.10000000 1 1 1
     0.70596394     0.81969487     0.10000000 1 1 1
     0.72676838     0.84188627     0.10000000 1 1 1
     0.74757282     0.86407767     0.10000000 1 1 1
     0.76837725     0.88626907     0.10000000 1 1 1
     0.78918169     0.90846047     0.10000000 1 1 1
     0.80998613     0.93065187     0.10000000 1 1 1
     0.83079057     0.95284327     0.10000000 1 1 1
     0.85159501     0.97503467     0.10000000 1 1 1
     0.87239945     0.99722607     0.10000000 1 1 1
     0.00000000     0.00000000     0.10000000 1 1 1
     0.02080444     0.02219140     0.10000000 1 1 1
     0.04160888     0.04438280     0.10000000 1 1 1
     0.06241331     0.06657420     0.10000000 1 1 1
     0.08321775     0.08876560     0.10000000 1 1 1
     0.10402219     0.11095700     0.10000000 1 1 1
     0.12482663     0.13314840     0.10000000 1 1 1
     0.14563107     0.15533981     0.10000000 1 1 1
     0.16643551     0.17753121     0.10000000 1 1 1
     0.18723994     0.19972261     0.10000000 1 1 1
     0.20804438     0.22191401     0.10000000 1 1 1
     0.22884882     0.24410541     0.10000000 1 1 1
     0.24965326     0.26629681     0.10000000 1 1 1
     0.27045770     0.28848821     0.10000000 1 1 1
     0.29126214     0.31067961     0.10000000 1 1 1
     0.31206657     0.33287101     0.10000000 1 1 1
     0.33287101     0.35506241     0.10000000 1 1 1
     0.35367545     0.37725381     0.10000000 1 1 1
     0.37447989     0.39944521     0.10000000 1 1 1
     0.39528433     0.42163662     0.10000000 1 1 1
     0.41608877     0.44382802     0.10000000 1 1 1
     0.43689320     0.46601942     0.10000000 1 1 1
     0.45769764     0.48821082     0.10000000 1 1 1
     0.47850208     0.51040222     0.10000000 1 1 1
     0.49930652     0.53259362     0.10000000 1 1 1
     0.52011096     0.55478502     0.10000000 1 1 1
     0.54091540     0.57697642     0.10000000 1 1 1
     0.56171983     0.59916782     0.10000000 1 1 1
     0.58252427     0.62135922     0.10000000 1 1 1
     0.60332871     0.64355062     0.10000000 1 1 1
     0.62413315     0.66574202     0.10000000 1 1 1
     0.64493759     0.68793343     0.10000000 1 1 1
     0.66574202     0.71012483     0.10000000 1 1 1
     0.68654646     0.73231623     0.10000000 1 1 1
     0.70735090     0.75450763     0.10000000 1 1 1
     0.72815534     0.77669903     0.10000000 1 1 1
     0.74895978     0.79889043     0.10000000 1 1 1
     0.76976422     0.82108183     0.10000000 1 1 1
     0.79056865     0.84327323     0.10000000 1 1 1
     0.81137309     0.86546463     0.10000000 1 1 1
     0.83217753     0.88765603     0.10000000 1 1 1
     0.85298197     0.90984743     0.10000000 1 1 1
     0.87378641     0.93203883     0.10000000 1 1 1
     0.89459085     0.95423024     0.10000000 1 1 1
     0.91539528     0.97642164     0.10000000 1 1 1
     0.93619972     0.99861304     0.10000000 1 1 1
     0.06380028     0.00138696     0.10000000 1 1 1
     0.08460472     0.02357836     0.10000000 1 1 1
     0.10540915     0.04576976     0.10000000 1 1 1
     0.12621359     0.06796117     0.10000000 1 1 1
     0.14701803     0.09015257     0.10000000 1 1 1
     0.16782247     0.11234397     0.10000000 1 1 1
     0.18862691     0.13453537     0.10000000 1 1 1
     0.20943135     0.15672677     0.10000000 1 1 1
     0.23023578     0.17891817     0.10000000 1 1 1
     0.25104022     0.20110957     0.10000000 1 1 1
     0.27184466     0.22330097     0.10000000 1 1 1
     0.29264910     0.24549237     0.10000000 1 1 1
     0.31345354     0.26768377     0.10000000 1 1 1
     0.33425798     0.28987517     0.10000000 1 1 1
     0.35506241     0.31206657     0.10000000 1 1 1
     0.37586685     0.33425798     0.10000000 1 1 1
     0.39667129     0.35644938     0.10000000 1 1 1
     0.41747573     0.37864078     0.10000000 1 1 1
     0.43828017     0.40083218     0.10000000 1 1 1
     0.45908460     0.42302358     0.10000000 1 1 1
     0.47988904     0.44521498     0.10000000 1 1 1
     0.50069348     0.46740638     0.10000000 1 1 1
     0.52149792     0.48959778     0.10000000 1 1 1
     0.54230236     0.51178918     0.10000000 1 1 1
     0.56310680     0.53398058     0.10000000 1 1 1
     0.58391123     0.55617198     0.10000000 1 1 1
     0.60471567     0.57836338     0.10000000 1 1 1
     0.62552011     0.60055479     0.10000000 1 1 1
     0.64632455     0.62274619     0.10000000 1 1 1
     0.66712899     0.64493759     0.10000000 1 1 1
     0.68793343     0.66712899     0.10000000 1 1 1
     0.70873786     0.68932039     0.10000000 1 1 1
     0.72954230     0.71151179     0.10000000 1 1 1
     0.75034674     0.73370319     0.10000000 1 1 1
     0.77115118     0.75589459     0.10000000 1 1 1
     0.79195562     0.77808599     0.10000000 1 1 1
     0.81276006     0.80027739     0.10000000 1 1 1
     0.83356449     0.82246879     0.10000000 1 1 1
     0.85436893     0.84466019     0.10000000 1 1 1
     0.87517337     0.86685160     0.10000000 1 1 1
     0.89597781     0.88904300     0.10000000 1 1 1
     0.91678225     0.91123440     0.10000000 1 1 1
     0.93758669     0.93342580     0.10000000 1 1 1
     0.95839112     0.95561720     0.10000000 1 1 1
     0.97919556     0.97780860     0.10000000 1 1 1
     0.12760055     0.00277393     0.10000000 1 1 1
     0.14840499     0.02496533     0.10000000 1 1 1
     0.16920943     0.04715673     0.10000000 1 1 1
     0.19001387     0.06934813     0.10000000 1 1 1
     0.21081831     0.09153953     0.10000000 1 1 1
     0.23162275     0.11373093     0.10000000 1 1 1
     0.25242718     0.13592233     0.10000000 1 1 1
     0.27323162     0.15811373     0.10000000 1 1 1
     0.29403606     0.18030513     0.10000000 1 1 1
     0.31484050     0.20249653     0.10000000 1 1 1
     0.33564494     0.22468793     0.10000000 1 1 1
     0.35644938     0.24687933     0.10000000 1 1 1
     0.37725381     0.26907074     0.10000000 1 1 1
     0.39805825     0.29126214     0.10000000 1 1 1
     0.41886269     0.31345354     0.10000000 1 1 1
     0.43966713     0.33564494     0.10000000 1 1 1
     0.46047157     0.35783634     0.10000000 1 1 1
     0.48127601     0.38002774     0.10000000 1 1 1
     0.50208044     0.40221914     0.10000000 1 1 1
     0.52288488     0.42441054     0.10000000 1 1 1
     0.54368932     0.44660194     0.10000000 1 1 1
     0.56449376     0.46879334     0.10000000 1 1 1
     0.58529820     0.49098474     0.10000000 1 1 1
     0.60610264     0.51317614     0.10000000 1 1 1
     0.62690707     0.53536755     0.10000000 1 1 1
     0.64771151     0.55755895     0.10000000 1 1 1
     0.66851595     0.57975035     0.10000000 1 1 1
     0.68932039     0.60194175     0.10000000 1 1 1
     0.71012483     0.62413315     0.10000000 1 1 1
     0.73092926     0.64632455     0.10000000 1 1 1
     0.75173370     0.66851595     0.10000000 1 1 1
     0.77253814     0.69070735     0.10000000 1 1 1
     0.79334258     0.71289875     0.10000000 1 1 1
     0.81414702     0.73509015     0.10000000 1 1 1
     0.83495146     0.75728155     0.10000000 1 1 1
     0.85575589     0.77947295     0.10000000 1 1 1
     0.87656033     0.80166436     0.10000000 1 1 1
     0.89736477     0.82385576     0.10000000 1 1 1
     0.91816921     0.84604716     0.10000000 1 1 1
     0.93897365     0.86823856     0.10000000 1 1 1
     0.95977809     0.89042996     0.10000000 1 1 1
     0.98058252     0.91262136     0.10000000 1 1 1
     0.19140083     0.00416089     0.10000000 1 1 1
     0.21220527     0.02635229     0.10000000 1 1 1
     0.23300971     0.04854369     0.10000000 1 1 1
     0.25381415     0.07073509     0.10000000 1 1 1
     0.27461859     0.09292649     0.10000000 1 1 1
     0.29542302     0.11511789     0.10000000 1 1 1
     0.31622746     0.13730929     0.10000000 1 1 1
     0.33703190     0.15950069     0.10000000 1 1 1
     0.35783634     0.18169209     0.10000000 1 1 1
     0.37864078     0.20388350     0.10000000 1 1 1
     0.39944521     0.22607490     0.10000000 1 1 1
     0.42024965     0.24826630     0.10000000 1 1 1
     0.44105409     0.27045770     0.10000000 1 1 1
     0.46185853     0.29264910     0.10000000 1 1 1
     0.48266297     0.31484050     0.10000000 1 1 1
     0.50346741     0.33703190     0.10000000 1 1 1
     0.52427184     0.35922330     0.10000000 1 1 1
     0.54507628     0.38141470     0.10000000 1 1 1
     0.56588072     0.40360610     0.10000000 1 1 1
     0.58668516     0.42579750     0.10000000 1 1 1
     0.60748960     0.44798890     0.10000000 1 1 1
     0.62829404     0.47018031     0.10000000 1 1 1
     0.64909847     0.49237171     0.10000000 1 1 1
     0.66990291     0.51456311     0.10000000 1 1 1
     0.69070735     0.53675451     0.10000000 1 1 1
     0.71151179     0.55894591     0.10000000 1 1 1
     0.73231623     0.58113731     0.10000000 1 1 1
     0.75312067     0.60332871     0.10000000 1 1 1
     0.77392510     0.62552011     0.10000000 1 1 1
     0.79472954     0.64771151     0.10000000 1 1 1
     0.81553398     0.66990291     0.10000000 1 1 1
     0.83633842     0.69209431     0.10000000 1 1 1
     0.85714286     0.71428571     0.10000000 1 1 1
     0.87794730     0.73647712     0.10000000 1 1 1
     0.89875173     0.75866852     0.10000000 1 1 1
     0.91955617     0.78085992     0.10000000 1 1 1
     0.94036061     0.80305132     0.10000000 1 1 1
     0.96116505     0.82524272     0.10000000 1 1 1
     0.98196949     0.84743412     0.10000000 1 1 1
     0.25520111     0.00554785     0.10000000 1 1 1
     0.27600555     0.02773925     0.10000000 1 1 1
     0.29680999     0.04993065     0.10000000 1 1 1
     0.31761442     0.07212205     0.10000000 1 1 1
     0.33841886     0.09431345     0.10000000 1 1 1
     0.35922330     0.11650485     0.10000000 1 1 1
     0.38002774     0.13869626     0.10000000 1 1 1
     0.40083218     0.16088766     0.10000000 1 1 1
     0.42163662     0.18307906     0.10000000 1 1 1
     0.44244105     0.20527046     0.10000000 1 1 1
     0.46324549     0.22746186     0.10000000 1 1 1
     0.48404993     0.24965326     0.10000000 1 1 1
     0.50485437     0.27184466     0.10000000 1 1 1
     0.52565881     0.29403606     0.10000000 1 1 1
     0.54646325     0.31622746     0.10000000 1 1 1
     0.56726768     0.33841886     0.10000000 1 1 1
     0.58807212     0.36061026     0.10000000 1 1 1
     0.60887656     0.38280166     0.10000000 1 1 1
     0.62968100     0.40499307     0.10000000 1 1 1
     0.65048544     0.42718447     0.10000000 1 1 1
     0.67128988     0.44937587     0.10000000 1 1 1
     0.69209431     0.47156727     0.10000000 1 1 1
     0.71289875     0.49375867     0.10000000 1 1 1
     0.73370319     0.51595007     0.10000000 1 1 1
     0.75450763     0.53814147     0.10000000 1 1 1
     0.77531207     0.56033287     0.10000000 1 1 1
     0.79611650     0.58252427     0.10000000 1 1 1
     0.81692094     0.60471567     0.10000000 1 1 1
     0.83772538     0.62690707     0.10000000 1 1 1
     0.85852982     0.64909847     0.10000000 1 1 1
     0.87933426     0.67128988     0.10000000 1 1 1
     0.90013870     0.69348128     0.10000000 1 1 1
     0.92094313     0.71567268     0.10000000 1 1 1
     0.94174757     0.73786408     0.10000000 1 1 1
     0.96255201     0.76005548     0.10000000 1 1 1
     0.98335645     0.78224688     0.10000000 1 1 1
     0.31900139     0.00693481     0.10000000 1 1 1
     0.33980583     0.02912621     0.10000000 1 1 1
     0.36061026     0.05131761     0.10000000 1 1 1
     0.38141470     0.07350902     0.10000000 1 1 1
     0.40221914     0.09570042     0.10000000 1 1 1
     0.42302358     0.11789182     0.10000000 1 1 1
     0.44382802     0.14008322     0.10000000 1 1 1
     0.46463245     0.16227462     0.10000000 1 1 1
     0.48543689     0.18446602     0.10000000 1 1 1
     0.50624133     0.20665742     0.10000000 1 1 1
     0.52704577     0.22884882     0.10000000 1 1 1
     0.54785021     0.25104022     0.10000000 1 1 1
     0.56865465     0.27323162     0.10000000 1 1 1
     0.58945908     0.29542302     0.10000000 1 1 1
     0.61026352     0.31761442     0.10000000 1 1 1
     0.63106796     0.33980583     0.10000000 1 1 1
     0.65187240     0.36199723     0.10000000 1 1 1
     0.67267684     0.38418863     0.10000000 1 1 1
     0.69348128     0.40638003     0.10000000 1 1 1
     0.71428571     0.42857143     0.10000000 1 1 1
     0.73509015     0.45076283     0.10000000 1 1 1
     0.75589459     0.47295423     0.10000000 1 1 1
     0.77669903     0.49514563     0.10000000 1 1 1
     0.79750347     0.51733703     0.10000000 1 1 1
     0.81830791     0.53952843     0.10000000 1 1 1
     0.83911234     0.56171983     0.10000000 1 1 1
     0.85991678     0.58391123     0.10000000 1 1 1
     0.88072122     0.60610264     0.10000000 1 1 1
     0.90152566     0.62829404     0.10000000 1 1 1
     0.92233010     0.65048544     0.10000000 1 1 1
     0.94313454     0.67267684     0.10000000 1 1 1
     0.96393897     0.69486824     0.10000000 1 1 1
     0.98474341     0.71705964     0.10000000 1 1 1
     0.38280166     0.00832178     0.10000000 1 1 1
     0.40360610     0.03051318     0.10000000 1 1 1
     0.42441054     0.05270458     0.10000000 1 1 1
     0.44521498     0.07489598     0.10000000 1 1 1
     0.46601942     0.09708738     0.10000000 1 1 1
     0.48682386     0.11927878     0.10000000 1 1 1
     0.50762829     0.14147018     0.10000000 1 1 1
     0.52843273     0.16366158     0.10000000 1 1 1
     0.54923717     0.18585298     0.10000000 1 1 1
     0.57004161     0.20804438     0.10000000 1 1 1
     0.59084605     0.23023578     0.10000000 1 1 1
     0.61165049     0.25242718     0.10000000 1 1 1
     0.63245492     0.27461859     0.10000000 1 1 1
     0.65325936     0.29680999     0.10000000 1 1 1