ATOMIC_SPECIES
C 6.000 /mnt/C_ONCV_PBE-1.0.upf

NUMERICAL_ORBITAL
/mnt/C_gga_8au_100Ry_2s2p1d.orb

LATTICE_CONSTANT
1.889716

LATTICE_VECTORS
       20.9057505858       10.6499476984       0.0000000000
       -13.6176194819       26.7312633380       0.0000000000
       10.4528752929       5.3249738492       20.3188052098

ATOMIC_POSITIONS
Direct

C
0.0
364
     0.010989010     0.100000000     0.813186810 1 1 1
     0.065934070     0.100000000     0.879120880 1 1 1
     0.120879120     0.100000000     0.945054950 1 1 1
     0.021978020     0.100000000     0.626373630 1 1 1
     0.076923080     0.100000000     0.692307690 1 1 1
     0.131868130     0.100000000     0.758241760 1 1 1
     0.186813190     0.100000000     0.824175820 1 1 1
     0.241758240     0.100000000     0.890109890 1 1 1
     0.296703300     0.100000000     0.956043960 1 1 1
     0.032967030     0.100000000     0.439560440 1 1 1
     0.087912090     0.100000000     0.505494510 1 1 1
     0.142857140     0.100000000     0.571428570 1 1 1
     0.197802200     0.100000000     0.637362640 1 1 1
     0.252747250     0.100000000     0.703296700 1 1 1
     0.307692310     0.100000000     0.769230770 1 1 1
     0.362637360     0.100000000     0.835164840 1 1 1
     0.417582420     0.100000000     0.901098900 1 1 1
     0.472527470     0.100000000     0.967032970 1 1 1
     0.043956040     0.100000000     0.252747250 1 1 1
     0.098901100     0.100000000     0.318681320 1 1 1
     0.153846150     0.100000000     0.384615380 1 1 1
     0.208791210     0.100000000     0.450549450 1 1 1
     0.263736260     0.100000000     0.516483520 1 1 1
     0.318681320     0.100000000     0.582417580 1 1 1
     0.373626370     0.100000000     0.648351650 1 1 1
     0.428571430     0.100000000     0.714285710 1 1 1
     0.483516480     0.100000000     0.780219780 1 1 1
     0.538461540     0.100000000     0.846153850 1 1 1
     0.593406590     0.100000000     0.912087910 1 1 1
     0.648351650     0.100000000     0.978021980 1 1 1
     0.000000000     0.100000000     0.000000000 1 1 1
     0.054945050     0.100000000     0.065934070 1 1 1
     0.109890110     0.100000000     0.131868130 1 1 1
     0.164835160     0.100000000     0.197802200 1 1 1
     0.219780220     0.100000000     0.263736260 1 1 1
     0.274725270     0.100000000     0.329670330 1 1 1
     0.329670330     0.100000000     0.395604400 1 1 1
     0.384615380     0.100000000     0.461538460 1 1 1
     0.439560440     0.100000000     0.527472530 1 1 1
     0.494505490     0.100000000     0.593406590 1 1 1
     0.549450550     0.100000000     0.659340660 1 1 1
     0.604395600     0.100000000     0.725274730 1 1 1
     0.659340660     0.100000000     0.791208790 1 1 1
     0.714285710     0.100000000     0.857142860 1 1 1
     0.769230770     0.100000000     0.923076920 1 1 1
     0.824175820     0.100000000     0.989010990 1 1 1
     0.175824180     0.100000000     0.010989010 1 1 1
     0.230769230     0.100000000     0.076923080 1 1 1
     0.285714290     0.100000000     0.142857140 1 1 1
     0.340659340     0.100000000     0.208791210 1 1 1
     0.395604400     0.100000000     0.274725270 1 1 1
     0.450549450     0.100000000     0.340659340 1 1 1
     0.505494510     0.100000000     0.406593410 1 1 1
     0.560439560     0.100000000     0.472527470 1 1 1
     0.615384620     0.100000000     0.538461540 1 1 1
     0.670329670     0.100000000     0.604395600 1 1 1
     0.725274730     0.100000000     0.670329670 1 1 1
     0.780219780     0.100000000     0.736263740 1 1 1
     0.835164840     0.100000000     0.802197800 1 1 1
     0.890109890     0.100000000     0.868131870 1 1 1
     0.945054950     0.100000000     0.934065930 1 1 1
     0.351648350     0.100000000     0.021978020 1 1 1
     0.406593410     0.100000000     0.087912090 1 1 1
     0.461538460     0.100000000     0.153846150 1 1 1
     0.516483520     0.100000000     0.219780220 1 1 1
     0.571428570     0.100000000     0.285714290 1 1 1
     0.626373630     0.100000000     0.351648350 1 1 1
     0.681318680     0.100000000     0.417582420 1 1 1
     0.736263740     0.100000000     0.483516480 1 1 1
     0.791208790     0.100000000     0.549450550 1 1 1
     0.846153850     0.100000000     0.615384620 1 1 1
     0.901098900     0.100000000     0.681318680 1 1 1
     0.956043960     0.100000000     0.747252750 1 1 1
     0.527472530     0.100000000     0.032967030 1 1 1
     0.582417580     0.100000000     0.098901100 1 1 1
     0.637362640     0.100000000     0.164835160 1 1 1
     0.692307690     0.100000000     0.230769230 1 1 1
     0.747252750     0.100000000     0.296703300 1 1 1
     0.802197800     0.100000000     0.362637360 1 1 1
     0.857142860     0.100000000     0.428571430 1 1 1
     0.912087910     0.100000000     0.494505490 1 1 1
     0.967032970     0.100000000     0.560439560 1 1 1
     0.703296700     0.100000000     0.043956040 1 1 1
     0.758241760     0.100000000     0.109890110 1 1 1
     0.813186810     0.100000000     0.175824180 1 1 1
     0.868131870     0.100000000     0.241758240 1 1 1
     0.923076920     0.100000000     0.307692310 1 1 1
     0.978021980     0.100000000     0.373626370 1 1 1
     0.879120880     0.100000000     0.054945050 1 1 1
     0.934065930     0.100000000     0.120879120 1 1 1
     0.989010990     0.100000000     0.186813190 1 1 1
     0.128205130     0.100000000     0.820512820 1 1 1
     0.183150180     0.100000000     0.886446880 1 1 1
     0.238095240     0.100000000     0.952380950 1 1 1
     0.139194140     0.100000000     0.633699630 1 1 1
     0.194139190     0.100000000     0.699633700 1 1 1
     0.249084250     0.100000000     0.765567760 1 1 1
     0.304029300     0.100000000     0.831501830 1 1 1
     0.358974360     0.100000000     0.897435890 1 1 1
     0.413919410     0.100000000     0.963369960 1 1 1
     0.150183150     0.100000000     0.446886440 1 1 1
     0.205128210     0.100000000     0.512820510 1 1 1
     0.260073260     0.100000000     0.578754580 1 1 1
     0.315018320     0.100000000     0.644688640 1 1 1
     0.369963370     0.100000000     0.710622710 1 1 1
     0.424908430     0.100000000     0.776556770 1 1 1
     0.479853480     0.100000000     0.842490840 1 1 1
     0.534798540     0.100000000     0.908424900 1 1 1
     0.589743590     0.100000000     0.974358970 1 1 1
     0.161172160     0.100000000     0.260073260 1 1 1
     0.216117220     0.100000000     0.326007320 1 1 1
     0.271062270     0.100000000     0.391941390 1 1 1
     0.326007330     0.100000000     0.457875450 1 1 1
     0.380952380     0.100000000     0.523809520 1 1 1
     0.435897440     0.100000000     0.589743590 1 1 1
     0.490842490     0.100000000     0.655677650 1 1 1
     0.545787550     0.100000000     0.721611720 1 1 1
     0.600732600     0.100000000     0.787545780 1 1 1
     0.655677660     0.100000000     0.853479850 1 1 1
     0.710622710     0.100000000     0.919413920 1 1 1
     0.765567770     0.100000000     0.985347980 1 1 1
     0.117216120     0.100000000     0.007326000 1 1 1
     0.172161170     0.100000000     0.073260070 1 1 1
     0.227106230     0.100000000     0.139194140 1 1 1
     0.282051280     0.100000000     0.205128200 1 1 1
     0.336996340     0.100000000     0.271062270 1 1 1
     0.391941390     0.100000000     0.336996330 1 1 1
     0.446886450     0.100000000     0.402930400 1 1 1
     0.501831500     0.100000000     0.468864470 1 1 1
     0.556776560     0.100000000     0.534798530 1 1 1
     0.611721610     0.100000000     0.600732600 1 1 1
     0.666666670     0.100000000     0.666666660 1 1 1
     0.721611720     0.100000000     0.732600730 1 1 1
     0.776556780     0.100000000     0.798534790 1 1 1
     0.831501830     0.100000000     0.864468860 1 1 1
     0.886446890     0.100000000     0.930402930 1 1 1
     0.941391940     0.100000000     0.996336990 1 1 1
     0.293040290     0.100000000     0.018315010 1 1 1
     0.347985350     0.100000000     0.084249080 1 1 1
     0.402930400     0.100000000     0.150183150 1 1 1
     0.457875460     0.100000000     0.216117210 1 1 1
     0.512820510     0.100000000     0.282051280 1 1 1
     0.567765570     0.100000000     0.347985340 1 1 1
     0.622710620     0.100000000     0.413919410 1 1 1
     0.677655680     0.100000000     0.479853480 1 1 1
     0.732600730     0.100000000     0.545787540 1 1 1
     0.787545790     0.100000000     0.611721610 1 1 1
     0.842490840     0.100000000     0.677655670 1 1 1
     0.897435900     0.100000000     0.743589740 1 1 1
     0.952380950     0.100000000     0.809523810 1 1 1
     0.007326010     0.100000000     0.875457870 1 1 1
     0.062271060     0.100000000     0.941391940 1 1 1
     0.468864470     0.100000000     0.029304030 1 1 1
     0.523809520     0.100000000     0.095238090 1 1 1
     0.578754580     0.100000000     0.161172160 1 1 1
     0.633699630     0.100000000     0.227106220 1 1 1
     0.688644690     0.100000000     0.293040290 1 1 1
     0.743589740     0.100000000     0.358974360 1 1 1
     0.798534800     0.100000000     0.424908420 1 1 1
     0.853479850     0.100000000     0.490842490 1 1 1
     0.908424910     0.100000000     0.556776550 1 1 1
     0.963369960     0.100000000     0.622710620 1 1 1
     0.018315020     0.100000000     0.688644680 1 1 1
     0.073260070     0.100000000     0.754578750 1 1 1
     0.644688640     0.100000000     0.040293040 1 1 1
     0.699633700     0.100000000     0.106227100 1 1 1
     0.754578750     0.100000000     0.172161170 1 1 1
     0.809523810     0.100000000     0.238095230 1 1 1
     0.864468860     0.100000000     0.304029300 1 1 1
     0.919413920     0.100000000     0.369963370 1 1 1
     0.974358970     0.100000000     0.435897430 1 1 1
     0.029304030     0.100000000     0.501831500 1 1 1
     0.084249080     0.100000000     0.567765560 1 1 1
     0.820512820     0.100000000     0.051282050 1 1 1
     0.875457880     0.100000000     0.117216110 1 1 1
     0.930402930     0.100000000     0.183150180 1 1 1
     0.985347990     0.100000000     0.249084250 1 1 1
     0.040293040     0.100000000     0.315018310 1 1 1
     0.095238100     0.100000000     0.380952380 1 1 1
     0.996337000     0.100000000     0.062271060 1 1 1
     0.051282050     0.100000000     0.128205120 1 1 1
     0.106227110     0.100000000     0.194139190 1 1 1
     0.054945050     0.213613330     0.879120880 1 1 1
     0.120879120     0.213613330     0.934065930 1 1 1
     0.186813190     0.213613330     0.989010990 1 1 1
     0.043956040     0.213613330     0.703296700 1 1 1
     0.109890110     0.213613330     0.758241760 1 1 1
     0.175824180     0.213613330     0.813186810 1 1 1
     0.241758240     0.213613330     0.868131870 1 1 1
     0.307692310     0.213613330     0.923076920 1 1 1
     0.373626370     0.213613330     0.978021980 1 1 1
     0.032967030     0.213613330     0.527472530 1 1 1
     0.098901100     0.213613330     0.582417580 1 1 1
     0.164835160     0.213613330     0.637362640 1 1 1
     0.230769230     0.213613330     0.692307690 1 1 1
     0.296703300     0.213613330     0.747252750 1 1 1
     0.362637360     0.213613330     0.802197800 1 1 1
     0.428571430     0.213613330     0.857142860 1 1 1
     0.494505490     0.213613330     0.912087910 1 1 1
     0.560439560     0.213613330     0.967032970 1 1 1
     0.021978020     0.213613330     0.351648350 1 1 1
     0.087912090     0.213613330     0.406593410 1 1 1
     0.153846150     0.213613330     0.461538460 1 1 1
     0.219780220     0.213613330     0.516483520 1 1 1
     0.285714290     0.213613330     0.571428570 1 1 1
     0.351648350     0.213613330     0.626373630 1 1 1
     0.417582420     0.213613330     0.681318680 1 1 1
     0.483516480     0.213613330     0.736263740 1 1 1
     0.549450550     0.213613330     0.791208790 1 1 1
     0.615384620     0.213613330     0.846153850 1 1 1
     0.681318680     0.213613330     0.901098900 1 1 1
     0.747252750     0.213613330     0.956043960 1 1 1
     0.010989010     0.213613330     0.175824180 1 1 1
     0.076923080     0.213613330     0.230769230 1 1 1
     0.142857140     0.213613330     0.285714290 1 1 1
     0.208791210     0.213613330     0.340659340 1 1 1
     0.274725270     0.213613330     0.395604400 1 1 1
     0.340659340     0.213613330     0.450549450 1 1 1
     0.406593410     0.213613330     0.505494510 1 1 1
     0.472527470     0.213613330     0.560439560 1 1 1
     0.538461540     0.213613330     0.615384620 1 1 1
     0.604395600     0.213613330     0.670329670 1 1 1
     0.670329670     0.213613330     0.725274730 1 1 1
     0.736263740     0.213613330     0.780219780 1 1 1
     0.802197800     0.213613330     0.835164840 1 1 1
     0.868131870     0.213613330     0.890109890 1 1 1
     0.934065930     0.213613330     0.945054950 1 1 1
     0.000000000     0.213613330     0.000000000 1 1 1
     0.065934070     0.213613330     0.054945050 1 1 1
     0.131868130     0.213613330     0.109890110 1 1 1
     0.197802200     0.213613330     0.164835160 1 1 1
     0.263736260     0.213613330     0.219780220 1 1 1
     0.329670330     0.213613330     0.274725270 1 1 1
     0.395604400     0.213613330     0.329670330 1 1 1
     0.461538460     0.213613330     0.384615380 1 1 1
     0.527472530     0.213613330     0.439560440 1 1 1
     0.593406590     0.213613330     0.494505490 1 1 1
     0.659340660     0.213613330     0.549450550 1 1 1
     0.725274730     0.213613330     0.604395600 1 1 1
     0.791208790     0.213613330     0.659340660 1 1 1
     0.857142860     0.213613330     0.714285710 1 1 1
     0.923076920     0.213613330     0.769230770 1 1 1
     0.989010990     0.213613330     0.824175820 1 1 1
     0.252747250     0.213613330     0.043956040 1 1 1
     0.318681320     0.213613330     0.098901100 1 1 1
     0.384615380     0.213613330     0.153846150 1 1 1
     0.450549450     0.213613330     0.208791210 1 1 1
     0.516483520     0.213613330     0.263736260 1 1 1
     0.582417580     0.213613330     0.318681320 1 1 1
     0.648351650     0.213613330     0.373626370 1 1 1
     0.714285710     0.213613330     0.428571430 1 1 1
     0.780219780     0.213613330     0.483516480 1 1 1
     0.846153850     0.213613330     0.538461540 1 1 1
     0.912087910     0.213613330     0.593406590 1 1 1
     0.978021980     0.213613330     0.648351650 1 1 1
     0.439560440     0.213613330     0.032967030 1 1 1
     0.505494510     0.213613330     0.087912090 1 1 1
     0.571428570     0.213613330     0.142857140 1 1 1
     0.637362640     0.213613330     0.197802200 1 1 1
     0.703296700     0.213613330     0.252747250 1 1 1
     0.769230770     0.213613330     0.307692310 1 1 1
     0.835164840     0.213613330     0.362637360 1 1 1
     0.901098900     0.213613330     0.417582420 1 1 1
     0.967032970     0.213613330     0.472527470 1 1 1
     0.626373630     0.213613330     0.021978020 1 1 1
     0.692307690     0.213613330     0.076923080 1 1 1
     0.758241760     0.213613330     0.131868130 1 1 1
     0.824175820     0.213613330     0.186813190 1 1 1
     0.890109890     0.213613330     0.241758240 1 1 1
     0.956043960     0.213613330     0.296703300 1 1 1
     0.813186810     0.213613330     0.010989010 1 1 1
     0.879120880     0.213613330     0.065934070 1 1 1
     0.945054950     0.213613330     0.120879120 1 1 1
     0.179487180     0.213613330     0.871794870 1 1 1
     0.245421250     0.213613330     0.926739920 1 1 1
     0.311355310     0.213613330     0.981684980 1 1 1
     0.168498170     0.213613330     0.695970690 1 1 1
     0.234432230     0.213613330     0.750915750 1 1 1
     0.300366300     0.213613330     0.805860800 1 1 1
     0.366300370     0.213613330     0.860805860 1 1 1
     0.432234430     0.213613330     0.915750910 1 1 1
     0.498168500     0.213613330     0.970695970 1 1 1
     0.157509160     0.213613330     0.520146520 1 1 1
     0.223443220     0.213613330     0.575091570 1 1 1
     0.289377290     0.213613330     0.630036630 1 1 1
     0.355311360     0.213613330     0.684981680 1 1 1
     0.421245420     0.213613330     0.739926740 1 1 1
     0.487179490     0.213613330     0.794871790 1 1 1
     0.553113550     0.213613330     0.849816850 1 1 1
     0.619047620     0.213613330     0.904761900 1 1 1
     0.684981680     0.213613330     0.959706960 1 1 1
     0.146520150     0.213613330     0.344322340 1 1 1
     0.212454210     0.213613330     0.399267400 1 1 1
     0.278388280     0.213613330     0.454212450 1 1 1
     0.344322340     0.213613330     0.509157510 1 1 1
     0.410256410     0.213613330     0.564102560 1 1 1
     0.476190480     0.213613330     0.619047620 1 1 1
     0.542124540     0.213613330     0.673992670 1 1 1
     0.608058610     0.213613330     0.728937730 1 1 1
     0.673992670     0.213613330     0.783882780 1 1 1
     0.739926740     0.213613330     0.838827840 1 1 1
     0.805860810     0.213613330     0.893772890 1 1 1
     0.871794870     0.213613330     0.948717950 1 1 1
     0.135531140     0.213613330     0.168498160 1 1 1
     0.201465200     0.213613330     0.223443220 1 1 1
     0.267399270     0.213613330     0.278388270 1 1 1
     0.333333330     0.213613330     0.333333330 1 1 1
     0.399267400     0.213613330     0.388278380 1 1 1
     0.465201470     0.213613330     0.443223440 1 1 1
     0.531135530     0.213613330     0.498168490 1 1 1
     0.597069600     0.213613330     0.553113550 1 1 1
     0.663003660     0.213613330     0.608058600 1 1 1
     0.728937730     0.213613330     0.663003660 1 1 1
     0.794871790     0.213613330     0.717948710 1 1 1
     0.860805860     0.213613330     0.772893770 1 1 1
     0.926739930     0.213613330     0.827838820 1 1 1
     0.992673990     0.213613330     0.882783880 1 1 1
     0.058608060     0.213613330     0.937728930 1 1 1
     0.124542120     0.213613330     0.992673990 1 1 1
     0.190476190     0.213613330     0.047619040 1 1 1
     0.256410260     0.213613330     0.102564100 1 1 1
     0.322344320     0.213613330     0.157509150 1 1 1
     0.388278390     0.213613330     0.212454210 1 1 1
     0.454212450     0.213613330     0.267399260 1 1 1
     0.520146520     0.213613330     0.322344320 1 1 1
     0.586080590     0.213613330     0.377289370 1 1 1
     0.652014650     0.213613330     0.432234430 1 1 1
     0.717948720     0.213613330     0.487179480 1 1 1
     0.783882780     0.213613330     0.542124540 1 1 1
     0.849816850     0.213613330     0.597069590 1 1 1
     0.915750920     0.213613330     0.652014650 1 1 1
     0.981684980     0.213613330     0.706959700 1 1 1
     0.047619050     0.213613330     0.761904760 1 1 1
     0.113553110     0.213613330     0.816849810 1 1 1
     0.377289380     0.213613330     0.036630030 1 1 1
     0.443223440     0.213613330     0.091575090 1 1 1
     0.509157510     0.213613330     0.146520140 1 1 1
     0.575091570     0.213613330     0.201465200 1 1 1
     0.641025640     0.213613330     0.256410250 1 1 1
     0.706959710     0.213613330     0.311355310 1 1 1
     0.772893770     0.213613330     0.366300360 1 1 1
     0.838827840     0.213613330     0.421245420 1 1 1
     0.904761900     0.213613330     0.476190470 1 1 1
     0.970695970     0.213613330     0.531135530 1 1 1
     0.036630040     0.213613330     0.586080580 1 1 1
     0.102564100     0.213613330     0.641025640 1 1 1
     0.564102560     0.213613330     0.025641020 1 1 1
     0.630036630     0.213613330     0.080586080 1 1 1
     0.695970700     0.213613330     0.135531130 1 1 1
     0.761904760     0.213613330     0.190476190 1 1 1
     0.827838830     0.213613330     0.245421240 1 1 1
     0.893772890     0.213613330     0.300366300 1 1 1
     0.959706960     0.213613330     0.355311350 1 1 1
     0.025641030     0.213613330     0.410256410 1 1 1
     0.091575090     0.213613330     0.465201460 1 1 1
     0.750915750     0.213613330     0.014652010 1 1 1
     0.816849820     0.213613330     0.069597070 1 1 1
     0.882783880     0.213613330     0.124542120 1 1 1
     0.948717950     0.213613330     0.179487180 1 1 1
     0.014652010     0.213613330     0.234432230 1 1 1
     0.080586080     0.213613330     0.289377290 1 1 1
     0.937728940     0.213613330     0.003663000 1 1 1
     0.003663000     0.213613330     0.058608060 1 1 1
     0.069597070     0.213613330     0.113553110 1 1 1
