ATOMIC_SPECIES
C 6.000 ./C_ONCV_PBE-1.0.upf

NUMERICAL_ORBITAL
./C_gga_8au_100Ry_2s2p1d.orb

LATTICE_CONSTANT
1.889716

LATTICE_VECTORS
       83.6229992101       46.8597681274       0.0000000000
       -14.6654596818       26.1710582958       0.0000000000
       41.8114996051       23.4298840637       83.0149558778

ATOMIC_POSITIONS
Direct

C
0.0
6076
     0.000658330     0.100000000     0.955233710 1 1 1
     0.015141540     0.100000000     0.970375250 1 1 1
     0.029624750     0.100000000     0.985516790 1 1 1
     0.001316660     0.100000000     0.910467410 1 1 1
     0.015799870     0.100000000     0.925608950 1 1 1
     0.030283080     0.100000000     0.940750490 1 1 1
     0.044766290     0.100000000     0.955892030 1 1 1
     0.059249510     0.100000000     0.971033570 1 1 1
     0.073732720     0.100000000     0.986175120 1 1 1
     0.001974980     0.100000000     0.865701120 1 1 1
     0.016458200     0.100000000     0.880842660 1 1 1
     0.030941410     0.100000000     0.895984200 1 1 1
     0.045424620     0.100000000     0.911125740 1 1 1
     0.059907830     0.100000000     0.926267280 1 1 1
     0.074391050     0.100000000     0.941408820 1 1 1
     0.088874260     0.100000000     0.956550360 1 1 1
     0.103357470     0.100000000     0.971691900 1 1 1
     0.117840680     0.100000000     0.986833440 1 1 1
     0.002633310     0.100000000     0.820934830 1 1 1
     0.017116520     0.100000000     0.836076370 1 1 1
     0.031599740     0.100000000     0.851217910 1 1 1
     0.046082950     0.100000000     0.866359450 1 1 1
     0.060566160     0.100000000     0.881500990 1 1 1
     0.075049370     0.100000000     0.896642530 1 1 1
     0.089532590     0.100000000     0.911784070 1 1 1
     0.104015800     0.100000000     0.926925610 1 1 1
     0.118499010     0.100000000     0.942067150 1 1 1
     0.132982230     0.100000000     0.957208690 1 1 1
     0.147465440     0.100000000     0.972350230 1 1 1
     0.161948650     0.100000000     0.987491770 1 1 1
     0.003291640     0.100000000     0.776168530 1 1 1
     0.017774850     0.100000000     0.791310070 1 1 1
     0.032258060     0.100000000     0.806451610 1 1 1
     0.046741280     0.100000000     0.821593150 1 1 1
     0.061224490     0.100000000     0.836734690 1 1 1
     0.075707700     0.100000000     0.851876230 1 1 1
     0.090190920     0.100000000     0.867017770 1 1 1
     0.104674130     0.100000000     0.882159320 1 1 1
     0.119157340     0.100000000     0.897300860 1 1 1
     0.133640550     0.100000000     0.912442400 1 1 1
     0.148123770     0.100000000     0.927583940 1 1 1
     0.162606980     0.100000000     0.942725480 1 1 1
     0.177090190     0.100000000     0.957867020 1 1 1
     0.191573400     0.100000000     0.973008560 1 1 1
     0.206056620     0.100000000     0.988150100 1 1 1
     0.003949970     0.100000000     0.731402240 1 1 1
     0.018433180     0.100000000     0.746543780 1 1 1
     0.032916390     0.100000000     0.761685320 1 1 1
     0.047399610     0.100000000     0.776826860 1 1 1
     0.061882820     0.100000000     0.791968400 1 1 1
     0.076366030     0.100000000     0.807109940 1 1 1
     0.090849240     0.100000000     0.822251480 1 1 1
     0.105332460     0.100000000     0.837393020 1 1 1
     0.119815670     0.100000000     0.852534560 1 1 1
     0.134298880     0.100000000     0.867676100 1 1 1
     0.148782090     0.100000000     0.882817640 1 1 1
     0.163265310     0.100000000     0.897959180 1 1 1
     0.177748520     0.100000000     0.913100720 1 1 1
     0.192231730     0.100000000     0.928242260 1 1 1
     0.206714940     0.100000000     0.943383810 1 1 1
     0.221198160     0.100000000     0.958525350 1 1 1
     0.235681370     0.100000000     0.973666890 1 1 1
     0.250164580     0.100000000     0.988808430 1 1 1
     0.004608290     0.100000000     0.686635940 1 1 1
     0.019091510     0.100000000     0.701777490 1 1 1
     0.033574720     0.100000000     0.716919030 1 1 1
     0.048057930     0.100000000     0.732060570 1 1 1
     0.062541150     0.100000000     0.747202110 1 1 1
     0.077024360     0.100000000     0.762343650 1 1 1
     0.091507570     0.100000000     0.777485190 1 1 1
     0.105990780     0.100000000     0.792626730 1 1 1
     0.120474000     0.100000000     0.807768270 1 1 1
     0.134957210     0.100000000     0.822909810 1 1 1
     0.149440420     0.100000000     0.838051350 1 1 1
     0.163923630     0.100000000     0.853192890 1 1 1
     0.178406850     0.100000000     0.868334430 1 1 1
     0.192890060     0.100000000     0.883475970 1 1 1
     0.207373270     0.100000000     0.898617510 1 1 1
     0.221856480     0.100000000     0.913759050 1 1 1
     0.236339700     0.100000000     0.928900590 1 1 1
     0.250822910     0.100000000     0.944042130 1 1 1
     0.265306120     0.100000000     0.959183670 1 1 1
     0.279789340     0.100000000     0.974325210 1 1 1
     0.294272550     0.100000000     0.989466750 1 1 1
     0.005266620     0.100000000     0.641869650 1 1 1
     0.019749840     0.100000000     0.657011190 1 1 1
     0.034233050     0.100000000     0.672152730 1 1 1
     0.048716260     0.100000000     0.687294270 1 1 1
     0.063199470     0.100000000     0.702435810 1 1 1
     0.077682690     0.100000000     0.717577350 1 1 1
     0.092165900     0.100000000     0.732718890 1 1 1
     0.106649110     0.100000000     0.747860430 1 1 1
     0.121132320     0.100000000     0.763001970 1 1 1
     0.135615540     0.100000000     0.778143520 1 1 1
     0.150098750     0.100000000     0.793285060 1 1 1
     0.164581960     0.100000000     0.808426600 1 1 1
     0.179065170     0.100000000     0.823568140 1 1 1
     0.193548390     0.100000000     0.838709680 1 1 1
     0.208031600     0.100000000     0.853851220 1 1 1
     0.222514810     0.100000000     0.868992760 1 1 1
     0.236998030     0.100000000     0.884134300 1 1 1
     0.251481240     0.100000000     0.899275840 1 1 1
     0.265964450     0.100000000     0.914417380 1 1 1
     0.280447660     0.100000000     0.929558920 1 1 1
     0.294930880     0.100000000     0.944700460 1 1 1
     0.309414090     0.100000000     0.959842000 1 1 1
     0.323897300     0.100000000     0.974983540 1 1 1
     0.338380510     0.100000000     0.990125080 1 1 1
     0.005924950     0.100000000     0.597103360 1 1 1
     0.020408160     0.100000000     0.612244900 1 1 1
     0.034891380     0.100000000     0.627386440 1 1 1
     0.049374590     0.100000000     0.642527980 1 1 1
     0.063857800     0.100000000     0.657669520 1 1 1
     0.078341010     0.100000000     0.672811060 1 1 1
     0.092824230     0.100000000     0.687952600 1 1 1
     0.107307440     0.100000000     0.703094140 1 1 1
     0.121790650     0.100000000     0.718235680 1 1 1
     0.136273860     0.100000000     0.733377220 1 1 1
     0.150757080     0.100000000     0.748518760 1 1 1
     0.165240290     0.100000000     0.763660300 1 1 1
     0.179723500     0.100000000     0.778801840 1 1 1
     0.194206710     0.100000000     0.793943380 1 1 1
     0.208689930     0.100000000     0.809084920 1 1 1
     0.223173140     0.100000000     0.824226460 1 1 1
     0.237656350     0.100000000     0.839368010 1 1 1
     0.252139570     0.100000000     0.854509550 1 1 1
     0.266622780     0.100000000     0.869651090 1 1 1
     0.281105990     0.100000000     0.884792630 1 1 1
     0.295589200     0.100000000     0.899934170 1 1 1
     0.310072420     0.100000000     0.915075710 1 1 1
     0.324555630     0.100000000     0.930217250 1 1 1
     0.339038840     0.100000000     0.945358790 1 1 1
     0.353522050     0.100000000     0.960500330 1 1 1
     0.368005270     0.100000000     0.975641870 1 1 1
     0.382488480     0.100000000     0.990783410 1 1 1
     0.006583280     0.100000000     0.552337060 1 1 1
     0.021066490     0.100000000     0.567478600 1 1 1
     0.035549700     0.100000000     0.582620140 1 1 1
     0.050032920     0.100000000     0.597761690 1 1 1
     0.064516130     0.100000000     0.612903230 1 1 1
     0.078999340     0.100000000     0.628044770 1 1 1
     0.093482550     0.100000000     0.643186310 1 1 1
     0.107965770     0.100000000     0.658327850 1 1 1
     0.122448980     0.100000000     0.673469390 1 1 1
     0.136932190     0.100000000     0.688610930 1 1 1
     0.151415400     0.100000000     0.703752470 1 1 1
     0.165898620     0.100000000     0.718894010 1 1 1
     0.180381830     0.100000000     0.734035550 1 1 1
     0.194865040     0.100000000     0.749177090 1 1 1
     0.209348260     0.100000000     0.764318630 1 1 1
     0.223831470     0.100000000     0.779460170 1 1 1
     0.238314680     0.100000000     0.794601710 1 1 1
     0.252797890     0.100000000     0.809743250 1 1 1
     0.267281110     0.100000000     0.824884790 1 1 1
     0.281764320     0.100000000     0.840026330 1 1 1
     0.296247530     0.100000000     0.855167870 1 1 1
     0.310730740     0.100000000     0.870309410 1 1 1
     0.325213960     0.100000000     0.885450950 1 1 1
     0.339697170     0.100000000     0.900592500 1 1 1
     0.354180380     0.100000000     0.915734040 1 1 1
     0.368663590     0.100000000     0.930875580 1 1 1
     0.383146810     0.100000000     0.946017120 1 1 1
     0.397630020     0.100000000     0.961158660 1 1 1
     0.412113230     0.100000000     0.976300200 1 1 1
     0.426596450     0.100000000     0.991441740 1 1 1
     0.007241610     0.100000000     0.507570770 1 1 1
     0.021724820     0.100000000     0.522712310 1 1 1
     0.036208030     0.100000000     0.537853850 1 1 1
     0.050691240     0.100000000     0.552995390 1 1 1
     0.065174460     0.100000000     0.568136930 1 1 1
     0.079657670     0.100000000     0.583278470 1 1 1
     0.094140880     0.100000000     0.598420010 1 1 1
     0.108624090     0.100000000     0.613561550 1 1 1
     0.123107310     0.100000000     0.628703090 1 1 1
     0.137590520     0.100000000     0.643844630 1 1 1
     0.152073730     0.100000000     0.658986180 1 1 1
     0.166556950     0.100000000     0.674127720 1 1 1
     0.181040160     0.100000000     0.689269260 1 1 1
     0.195523370     0.100000000     0.704410800 1 1 1
     0.210006580     0.100000000     0.719552340 1 1 1
     0.224489800     0.100000000     0.734693880 1 1 1
     0.238973010     0.100000000     0.749835420 1 1 1
     0.253456220     0.100000000     0.764976960 1 1 1
     0.267939430     0.100000000     0.780118500 1 1 1
     0.282422650     0.100000000     0.795260040 1 1 1
     0.296905860     0.100000000     0.810401580 1 1 1
     0.311389070     0.100000000     0.825543120 1 1 1
     0.325872280     0.100000000     0.840684660 1 1 1
     0.340355500     0.100000000     0.855826200 1 1 1
     0.354838710     0.100000000     0.870967740 1 1 1
     0.369321920     0.100000000     0.886109280 1 1 1
     0.383805130     0.100000000     0.901250820 1 1 1
     0.398288350     0.100000000     0.916392360 1 1 1
     0.412771560     0.100000000     0.931533900 1 1 1
     0.427254770     0.100000000     0.946675440 1 1 1
     0.441737990     0.100000000     0.961816980 1 1 1
     0.456221200     0.100000000     0.976958530 1 1 1
     0.470704410     0.100000000     0.992100070 1 1 1
     0.007899930     0.100000000     0.462804480 1 1 1
     0.022383150     0.100000000     0.477946020 1 1 1
     0.036866360     0.100000000     0.493087560 1 1 1
     0.051349570     0.100000000     0.508229100 1 1 1
     0.065832780     0.100000000     0.523370640 1 1 1
     0.080316000     0.100000000     0.538512180 1 1 1
     0.094799210     0.100000000     0.553653720 1 1 1
     0.109282420     0.100000000     0.568795260 1 1 1
     0.123765640     0.100000000     0.583936800 1 1 1
     0.138248850     0.100000000     0.599078340 1 1 1
     0.152732060     0.100000000     0.614219880 1 1 1
     0.167215270     0.100000000     0.629361420 1 1 1
     0.181698490     0.100000000     0.644502960 1 1 1
     0.196181700     0.100000000     0.659644500 1 1 1
     0.210664910     0.100000000     0.674786040 1 1 1
     0.225148120     0.100000000     0.689927580 1 1 1
     0.239631340     0.100000000     0.705069120 1 1 1
     0.254114550     0.100000000     0.720210660 1 1 1
     0.268597760     0.100000000     0.735352210 1 1 1
     0.283080970     0.100000000     0.750493750 1 1 1
     0.297564190     0.100000000     0.765635290 1 1 1
     0.312047400     0.100000000     0.780776830 1 1 1
     0.326530610     0.100000000     0.795918370 1 1 1
     0.341013820     0.100000000     0.811059910 1 1 1
     0.355497040     0.100000000     0.826201450 1 1 1
     0.369980250     0.100000000     0.841342990 1 1 1
     0.384463460     0.100000000     0.856484530 1 1 1
     0.398946680     0.100000000     0.871626070 1 1 1
     0.413429890     0.100000000     0.886767610 1 1 1
     0.427913100     0.100000000     0.901909150 1 1 1
     0.442396310     0.100000000     0.917050690 1 1 1
     0.456879530     0.100000000     0.932192230 1 1 1
     0.471362740     0.100000000     0.947333770 1 1 1
     0.485845950     0.100000000     0.962475310 1 1 1
     0.500329160     0.100000000     0.977616850 1 1 1
     0.514812380     0.100000000     0.992758390 1 1 1
     0.008558260     0.100000000     0.418038180 1 1 1
     0.023041470     0.100000000     0.433179720 1 1 1
     0.037524690     0.100000000     0.448321260 1 1 1
     0.052007900     0.100000000     0.463462800 1 1 1
     0.066491110     0.100000000     0.478604340 1 1 1
     0.080974330     0.100000000     0.493745890 1 1 1
     0.095457540     0.100000000     0.508887430 1 1 1
     0.109940750     0.100000000     0.524028970 1 1 1
     0.124423960     0.100000000     0.539170510 1 1 1
     0.138907180     0.100000000     0.554312050 1 1 1
     0.153390390     0.100000000     0.569453590 1 1 1
     0.167873600     0.100000000     0.584595130 1 1 1
     0.182356810     0.100000000     0.599736670 1 1 1
     0.196840030     0.100000000     0.614878210 1 1 1
     0.211323240     0.100000000     0.630019750 1 1 1
     0.225806450     0.100000000     0.645161290 1 1 1
     0.240289660     0.100000000     0.660302830 1 1 1
     0.254772880     0.100000000     0.675444370 1 1 1
     0.269256090     0.100000000     0.690585910 1 1 1
     0.283739300     0.100000000     0.705727450 1 1 1
     0.298222510     0.100000000     0.720868990 1 1 1
     0.312705730     0.100000000     0.736010530 1 1 1
     0.327188940     0.100000000     0.751152070 1 1 1
     0.341672150     0.100000000     0.766293610 1 1 1
     0.356155370     0.100000000     0.781435150 1 1 1
     0.370638580     0.100000000     0.796576700 1 1 1
     0.385121790     0.100000000     0.811718240 1 1 1
     0.399605000     0.100000000     0.826859780 1 1 1
     0.414088220     0.100000000     0.842001320 1 1 1
     0.428571430     0.100000000     0.857142860 1 1 1
     0.443054640     0.100000000     0.872284400 1 1 1
     0.457537850     0.100000000     0.887425940 1 1 1
     0.472021070     0.100000000     0.902567480 1 1 1
     0.486504280     0.100000000     0.917709020 1 1 1
     0.500987490     0.100000000     0.932850560 1 1 1
     0.515470700     0.100000000     0.947992100 1 1 1
     0.529953920     0.100000000     0.963133640 1 1 1
     0.544437130     0.100000000     0.978275180 1 1 1
     0.558920340     0.100000000     0.993416720 1 1 1
     0.009216590     0.100000000     0.373271890 1 1 1
     0.023699800     0.100000000     0.388413430 1 1 1
     0.038183020     0.100000000     0.403554970 1 1 1
     0.052666230     0.100000000     0.418696510 1 1 1
     0.067149440     0.100000000     0.433838050 1 1 1
     0.081632650     0.100000000     0.448979590 1 1 1
     0.096115870     0.100000000     0.464121130 1 1 1
     0.110599080     0.100000000     0.479262670 1 1 1
     0.125082290     0.100000000     0.494404210 1 1 1
     0.139565500     0.100000000     0.509545750 1 1 1
     0.154048720     0.100000000     0.524687290 1 1 1
     0.168531930     0.100000000     0.539828830 1 1 1
     0.183015140     0.100000000     0.554970380 1 1 1
     0.197498350     0.100000000     0.570111920 1 1 1
     0.211981570     0.100000000     0.585253460 1 1 1
     0.226464780     0.100000000     0.600395000 1 1 1
     0.240947990     0.100000000     0.615536540 1 1 1
     0.255431200     0.100000000     0.630678080 1 1 1
     0.269914420     0.100000000     0.645819620 1 1 1
     0.284397630     0.100000000     0.660961160 1 1 1
     0.298880840     0.100000000     0.676102700 1 1 1
     0.313364060     0.100000000     0.691244240 1 1 1
     0.327847270     0.100000000     0.706385780 1 1 1
     0.342330480     0.100000000     0.721527320 1 1 1
     0.356813690     0.100000000     0.736668860 1 1 1
     0.371296910     0.100000000     0.751810400 1 1 1
     0.385780120     0.100000000     0.766951940 1 1 1
     0.400263330     0.100000000     0.782093480 1 1 1
     0.414746540     0.100000000     0.797235020 1 1 1
     0.429229760     0.100000000     0.812376560 1 1 1
     0.443712970     0.100000000     0.827518100 1 1 1
     0.458196180     0.100000000     0.842659640 1 1 1
     0.472679390     0.100000000     0.857801180 1 1 1
     0.487162610     0.100000000     0.872942730 1 1 1
     0.501645820     0.100000000     0.888084270 1 1 1
     0.516129030     0.100000000     0.903225810 1 1 1
     0.530612240     0.100000000     0.918367350 1 1 1
     0.545095460     0.100000000     0.933508890 1 1 1
     0.559578670     0.100000000     0.948650430 1 1 1
     0.574061880     0.100000000     0.963791970 1 1 1
     0.588545100     0.100000000     0.978933510 1 1 1
     0.603028310     0.100000000     0.994075050 1 1 1
     0.009874920     0.100000000     0.328505600 1 1 1
     0.024358130     0.100000000     0.343647140 1 1 1
     0.038841340     0.100000000     0.358788680 1 1 1
     0.053324560     0.100000000     0.373930220 1 1 1
     0.067807770     0.100000000     0.389071760 1 1 1
     0.082290980     0.100000000     0.404213300 1 1 1
     0.096774190     0.100000000     0.419354840 1 1 1
     0.111257410     0.100000000     0.434496380 1 1 1
     0.125740620     0.100000000     0.449637920 1 1 1
     0.140223830     0.100000000     0.464779460 1 1 1
     0.154707040     0.100000000     0.479921000 1 1 1
     0.169190260     0.100000000     0.495062540 1 1 1
     0.183673470     0.100000000     0.510204080 1 1 1
     0.198156680     0.100000000     0.525345620 1 1 1
     0.212639890     0.100000000     0.540487160 1 1 1
     0.227123110     0.100000000     0.555628700 1 1 1
     0.241606320     0.100000000     0.570770240 1 1 1
     0.256089530     0.100000000     0.585911780 1 1 1
     0.270572750     0.100000000     0.601053320 1 1 1
     0.285055960     0.100000000     0.616194870 1 1 1
     0.299539170     0.100000000     0.631336410 1 1 1
     0.314022380     0.100000000     0.646477950 1 1 1
     0.328505600     0.100000000     0.661619490 1 1 1
     0.342988810     0.100000000     0.676761030 1 1 1
     0.357472020     0.100000000     0.691902570 1 1 1
     0.371955230     0.100000000     0.707044110 1 1 1
     0.386438450     0.100000000     0.722185650 1 1 1
     0.400921660     0.100000000     0.737327190 1 1 1
     0.415404870     0.100000000     0.752468730 1 1 1
     0.429888080     0.100000000     0.767610270 1 1 1
     0.444371300     0.100000000     0.782751810 1 1 1
     0.458854510     0.100000000     0.797893350 1 1 1
     0.473337720     0.100000000     0.813034890 1 1 1
     0.487820930     0.100000000     0.828176430 1 1 1
     0.502304150     0.100000000     0.843317970 1 1 1
     0.516787360     0.100000000     0.858459510 1 1 1
     0.531270570     0.100000000     0.873601050 1 1 1
     0.545753790     0.100000000     0.888742590 1 1 1
     0.560237000     0.100000000     0.903884130 1 1 1
     0.574720210     0.100000000     0.919025670 1 1 1
     0.589203420     0.100000000     0.934167220 1 1 1
     0.603686640     0.100000000     0.949308760 1 1 1
     0.618169850     0.100000000     0.964450300 1 1 1
     0.632653060     0.100000000     0.979591840 1 1 1
     0.647136270     0.100000000     0.994733380 1 1 1
     0.010533250     0.100000000     0.283739300 1 1 1
     0.025016460     0.100000000     0.298880840 1 1 1
     0.039499670     0.100000000     0.314022380 1 1 1
     0.053982880     0.100000000     0.329163920 1 1 1
     0.068466100     0.100000000     0.344305460 1 1 1
     0.082949310     0.100000000     0.359447000 1 1 1
     0.097432520     0.100000000     0.374588550 1 1 1
     0.111915730     0.100000000     0.389730090 1 1 1
     0.126398950     0.100000000     0.404871630 1 1 1
     0.140882160     0.100000000     0.420013170 1 1 1
     0.155365370     0.100000000     0.435154710 1 1 1
     0.169848580     0.100000000     0.450296250 1 1 1
     0.184331800     0.100000000     0.465437790 1 1 1
     0.198815010     0.100000000     0.480579330 1 1 1
     0.213298220     0.100000000     0.495720870 1 1 1
     0.227781440     0.100000000     0.510862410 1 1 1
     0.242264650     0.100000000     0.526003950 1 1 1
     0.256747860     0.100000000     0.541145490 1 1 1
     0.271231070     0.100000000     0.556287030 1 1 1
     0.285714290     0.100000000     0.571428570 1 1 1
     0.300197500     0.100000000     0.586570110 1 1 1
     0.314680710     0.100000000     0.601711650 1 1 1
     0.329163920     0.100000000     0.616853190 1 1 1
     0.343647140     0.100000000     0.631994730 1 1 1
     0.358130350     0.100000000     0.647136270 1 1 1
     0.372613560     0.100000000     0.662277810 1 1 1
     0.387096770     0.100000000     0.677419350 1 1 1
     0.401579990     0.100000000     0.692560900 1 1 1
     0.416063200     0.100000000     0.707702440 1 1 1
     0.430546410     0.100000000     0.722843980 1 1 1
     0.445029620     0.100000000     0.737985520 1 1 1
     0.459512840     0.100000000     0.753127060 1 1 1
     0.473996050     0.100000000     0.768268600 1 1 1
     0.488479260     0.100000000     0.783410140 1 1 1
     0.502962480     0.100000000     0.798551680 1 1 1
     0.517445690     0.100000000     0.813693220 1 1 1
     0.531928900     0.100000000     0.828834760 1 1 1
     0.546412110     0.100000000     0.843976300 1 1 1
     0.560895330     0.100000000     0.859117840 1 1 1
     0.575378540     0.100000000     0.874259380 1 1 1
     0.589861750     0.100000000     0.889400920 1 1 1
     0.604344960     0.100000000     0.904542460 1 1 1
     0.618828180     0.100000000     0.919684000 1 1 1
     0.633311390     0.100000000     0.934825540 1 1 1
     0.647794600     0.100000000     0.949967080 1 1 1
     0.662277810     0.100000000     0.965108620 1 1 1
     0.676761030     0.100000000     0.980250160 1 1 1
     0.691244240     0.100000000     0.995391710 1 1 1
     0.011191570     0.100000000     0.238973010 1 1 1
     0.025674790     0.100000000     0.254114550 1 1 1
     0.040158000     0.100000000     0.269256090 1 1 1
     0.054641210     0.100000000     0.284397630 1 1 1
     0.069124420     0.100000000     0.299539170 1 1 1
     0.083607640     0.100000000     0.314680710 1 1 1
     0.098090850     0.100000000     0.329822250 1 1 1
     0.112574060     0.100000000     0.344963790 1 1 1
     0.127057270     0.100000000     0.360105330 1 1 1
     0.141540490     0.100000000     0.375246870 1 1 1
     0.156023700     0.100000000     0.390388410 1 1 1
     0.170506910     0.100000000     0.405529950 1 1 1
     0.184990130     0.100000000     0.420671490 1 1 1
     0.199473340     0.100000000     0.435813030 1 1 1
     0.213956550     0.100000000     0.450954580 1 1 1
     0.228439760     0.100000000     0.466096120 1 1 1
     0.242922980     0.100000000     0.481237660 1 1 1
     0.257406190     0.100000000     0.496379200 1 1 1
     0.271889400     0.100000000     0.511520740 1 1 1
     0.286372610     0.100000000     0.526662280 1 1 1
     0.300855830     0.100000000     0.541803820 1 1 1
     0.315339040     0.100000000     0.556945360 1 1 1
     0.329822250     0.100000000     0.572086900 1 1 1
     0.344305460     0.100000000     0.587228440 1 1 1
     0.358788680     0.100000000     0.602369980 1 1 1
     0.373271890     0.100000000     0.617511520 1 1 1
     0.387755100     0.100000000     0.632653060 1 1 1
     0.402238310     0.100000000     0.647794600 1 1 1
     0.416721530     0.100000000     0.662936140 1 1 1
     0.431204740     0.100000000     0.678077680 1 1 1
     0.445687950     0.100000000     0.693219220 1 1 1
     0.460171170     0.100000000     0.708360760 1 1 1
     0.474654380     0.100000000     0.723502300 1 1 1
     0.489137590     0.100000000     0.738643840 1 1 1
     0.503620800     0.100000000     0.753785390 1 1 1
     0.518104020     0.100000000     0.768926930 1 1 1
     0.532587230     0.100000000     0.784068470 1 1 1
     0.547070440     0.100000000     0.799210010 1 1 1
     0.561553650     0.100000000     0.814351550 1 1 1
     0.576036870     0.100000000     0.829493090 1 1 1
     0.590520080     0.100000000     0.844634630 1 1 1
     0.605003290     0.100000000     0.859776170 1 1 1
     0.619486500     0.100000000     0.874917710 1 1 1
     0.633969720     0.100000000     0.890059250 1 1 1
     0.648452930     0.100000000     0.905200790 1 1 1
     0.662936140     0.100000000     0.920342330 1 1 1
     0.677419350     0.100000000     0.935483870 1 1 1
     0.691902570     0.100000000     0.950625410 1 1 1
     0.706385780     0.100000000     0.965766950 1 1 1
     0.720868990     0.100000000     0.980908490 1 1 1
     0.735352210     0.100000000     0.996050030 1 1 1
     0.011849900     0.100000000     0.194206710 1 1 1
     0.026333110     0.100000000     0.209348260 1 1 1
     0.040816330     0.100000000     0.224489800 1 1 1
     0.055299540     0.100000000     0.239631340 1 1 1
     0.069782750     0.100000000     0.254772880 1 1 1
     0.084265960     0.100000000     0.269914420 1 1 1
     0.098749180     0.100000000     0.285055960 1 1 1
     0.113232390     0.100000000     0.300197500 1 1 1
     0.127715600     0.100000000     0.315339040 1 1 1
     0.142198820     0.100000000     0.330480580 1 1 1
     0.156682030     0.100000000     0.345622120 1 1 1
     0.171165240     0.100000000     0.360763660 1 1 1
     0.185648450     0.100000000     0.375905200 1 1 1
     0.200131670     0.100000000     0.391046740 1 1 1
     0.214614880     0.100000000     0.406188280 1 1 1
     0.229098090     0.100000000     0.421329820 1 1 1
     0.243581300     0.100000000     0.436471360 1 1 1
     0.258064520     0.100000000     0.451612900 1 1 1
     0.272547730     0.100000000     0.466754440 1 1 1
     0.287030940     0.100000000     0.481895980 1 1 1
     0.301514150     0.100000000     0.497037520 1 1 1
     0.315997370     0.100000000     0.512179070 1 1 1
     0.330480580     0.100000000     0.527320610 1 1 1
     0.344963790     0.100000000     0.542462150 1 1 1
     0.359447000     0.100000000     0.557603690 1 1 1
     0.373930220     0.100000000     0.572745230 1 1 1
     0.388413430     0.100000000     0.587886770 1 1 1
     0.402896640     0.100000000     0.603028310 1 1 1
     0.417379860     0.100000000     0.618169850 1 1 1
     0.431863070     0.100000000     0.633311390 1 1 1
     0.446346280     0.100000000     0.648452930 1 1 1
     0.460829490     0.100000000     0.663594470 1 1 1
     0.475312710     0.100000000     0.678736010 1 1 1
     0.489795920     0.100000000     0.693877550 1 1 1
     0.504279130     0.100000000     0.709019090 1 1 1
     0.518762340     0.100000000     0.724160630 1 1 1
     0.533245560     0.100000000     0.739302170 1 1 1
     0.547728770     0.100000000     0.754443710 1 1 1
     0.562211980     0.100000000     0.769585250 1 1 1
     0.576695190     0.100000000     0.784726790 1 1 1
     0.591178410     0.100000000     0.799868330 1 1 1
     0.605661620     0.100000000     0.815009870 1 1 1
     0.620144830     0.100000000     0.830151420 1 1 1
     0.634628040     0.100000000     0.845292960 1 1 1
     0.649111260     0.100000000     0.860434500 1 1 1
     0.663594470     0.100000000     0.875576040 1 1 1
     0.678077680     0.100000000     0.890717580 1 1 1
     0.692560900     0.100000000     0.905859120 1 1 1
     0.707044110     0.100000000     0.921000660 1 1 1
     0.721527320     0.100000000     0.936142200 1 1 1
     0.736010530     0.100000000     0.951283740 1 1 1
     0.750493750     0.100000000     0.966425280 1 1 1
     0.764976960     0.100000000     0.981566820 1 1 1
     0.779460170     0.100000000     0.996708360 1 1 1
     0.012508230     0.100000000     0.149440420 1 1 1
     0.026991440     0.100000000     0.164581960 1 1 1
     0.041474650     0.100000000     0.179723500 1 1 1
     0.055957870     0.100000000     0.194865040 1 1 1
     0.070441080     0.100000000     0.210006580 1 1 1
     0.084924290     0.100000000     0.225148120 1 1 1
     0.099407500     0.100000000     0.240289660 1 1 1
     0.113890720     0.100000000     0.255431200 1 1 1
     0.128373930     0.100000000     0.270572750 1 1 1
     0.142857140     0.100000000     0.285714290 1 1 1
     0.157340360     0.100000000     0.300855830 1 1 1
     0.171823570     0.100000000     0.315997370 1 1 1
     0.186306780     0.100000000     0.331138910 1 1 1
     0.200789990     0.100000000     0.346280450 1 1 1
     0.215273210     0.100000000     0.361421990 1 1 1
     0.229756420     0.100000000     0.376563530 1 1 1
     0.244239630     0.100000000     0.391705070 1 1 1
     0.258722840     0.100000000     0.406846610 1 1 1
     0.273206060     0.100000000     0.421988150 1 1 1
     0.287689270     0.100000000     0.437129690 1 1 1
     0.302172480     0.100000000     0.452271230 1 1 1
     0.316655690     0.100000000     0.467412770 1 1 1
     0.331138910     0.100000000     0.482554310 1 1 1
     0.345622120     0.100000000     0.497695850 1 1 1
     0.360105330     0.100000000     0.512837390 1 1 1
     0.374588550     0.100000000     0.527978930 1 1 1