ATOMIC_SPECIES
C 6.000 ./C_ONCV_PBE-1.0.upf

NUMERICAL_ORBITAL
./C_gga_8au_100Ry_2s2p1d.orb

LATTICE_CONSTANT
1.889716

LATTICE_VECTORS
       46.7305000312       25.5598737871       0.0000000000
       -14.3961615365       26.3201545021       0.0000000000
       23.3652500156       12.7799368935       46.1279208927

ATOMIC_POSITIONS
Direct

C
0.0
1876
     0.002132200     0.100000000     0.918976550 1 1 1
     0.027718550     0.100000000     0.946695100 1 1 1
     0.053304900     0.100000000     0.974413650 1 1 1
     0.004264390     0.100000000     0.837953090 1 1 1
     0.029850750     0.100000000     0.865671640 1 1 1
     0.055437100     0.100000000     0.893390190 1 1 1
     0.081023450     0.100000000     0.921108740 1 1 1
     0.106609810     0.100000000     0.948827290 1 1 1
     0.132196160     0.100000000     0.976545840 1 1 1
     0.006396590     0.100000000     0.756929640 1 1 1
     0.031982940     0.100000000     0.784648190 1 1 1
     0.057569300     0.100000000     0.812366740 1 1 1
     0.083155650     0.100000000     0.840085290 1 1 1
     0.108742000     0.100000000     0.867803840 1 1 1
     0.134328360     0.100000000     0.895522390 1 1 1
     0.159914710     0.100000000     0.923240940 1 1 1
     0.185501070     0.100000000     0.950959490 1 1 1
     0.211087420     0.100000000     0.978678040 1 1 1
     0.008528780     0.100000000     0.675906180 1 1 1
     0.034115140     0.100000000     0.703624730 1 1 1
     0.059701490     0.100000000     0.731343280 1 1 1
     0.085287850     0.100000000     0.759061830 1 1 1
     0.110874200     0.100000000     0.786780380 1 1 1
     0.136460550     0.100000000     0.814498930 1 1 1
     0.162046910     0.100000000     0.842217480 1 1 1
     0.187633260     0.100000000     0.869936030 1 1 1
     0.213219620     0.100000000     0.897654580 1 1 1
     0.238805970     0.100000000     0.925373130 1 1 1
     0.264392320     0.100000000     0.953091680 1 1 1
     0.289978680     0.100000000     0.980810230 1 1 1
     0.010660980     0.100000000     0.594882730 1 1 1
     0.036247330     0.100000000     0.622601280 1 1 1
     0.061833690     0.100000000     0.650319830 1 1 1
     0.087420040     0.100000000     0.678038380 1 1 1
     0.113006400     0.100000000     0.705756930 1 1 1
     0.138592750     0.100000000     0.733475480 1 1 1
     0.164179100     0.100000000     0.761194030 1 1 1
     0.189765460     0.100000000     0.788912580 1 1 1
     0.215351810     0.100000000     0.816631130 1 1 1
     0.240938170     0.100000000     0.844349680 1 1 1
     0.266524520     0.100000000     0.872068230 1 1 1
     0.292110870     0.100000000     0.899786780 1 1 1
     0.317697230     0.100000000     0.927505330 1 1 1
     0.343283580     0.100000000     0.955223880 1 1 1
     0.368869940     0.100000000     0.982942430 1 1 1
     0.012793180     0.100000000     0.513859280 1 1 1
     0.038379530     0.100000000     0.541577830 1 1 1
     0.063965880     0.100000000     0.569296380 1 1 1
     0.089552240     0.100000000     0.597014930 1 1 1
     0.115138590     0.100000000     0.624733480 1 1 1
     0.140724950     0.100000000     0.652452030 1 1 1
     0.166311300     0.100000000     0.680170580 1 1 1
     0.191897650     0.100000000     0.707889130 1 1 1
     0.217484010     0.100000000     0.735607680 1 1 1
     0.243070360     0.100000000     0.763326230 1 1 1
     0.268656720     0.100000000     0.791044780 1 1 1
     0.294243070     0.100000000     0.818763330 1 1 1
     0.319829420     0.100000000     0.846481880 1 1 1
     0.345415780     0.100000000     0.874200430 1 1 1
     0.371002130     0.100000000     0.901918980 1 1 1
     0.396588490     0.100000000     0.929637530 1 1 1
     0.422174840     0.100000000     0.957356080 1 1 1
     0.447761190     0.100000000     0.985074630 1 1 1
     0.014925370     0.100000000     0.432835820 1 1 1
     0.040511730     0.100000000     0.460554370 1 1 1
     0.066098080     0.100000000     0.488272920 1 1 1
     0.091684430     0.100000000     0.515991470 1 1 1
     0.117270790     0.100000000     0.543710020 1 1 1
     0.142857140     0.100000000     0.571428570 1 1 1
     0.168443500     0.100000000     0.599147120 1 1 1
     0.194029850     0.100000000     0.626865670 1 1 1
     0.219616200     0.100000000     0.654584220 1 1 1
     0.245202560     0.100000000     0.682302770 1 1 1
     0.270788910     0.100000000     0.710021320 1 1 1
     0.296375270     0.100000000     0.737739870 1 1 1
     0.321961620     0.100000000     0.765458420 1 1 1
     0.347547970     0.100000000     0.793176970 1 1 1
     0.373134330     0.100000000     0.820895520 1 1 1
     0.398720680     0.100000000     0.848614070 1 1 1
     0.424307040     0.100000000     0.876332620 1 1 1
     0.449893390     0.100000000     0.904051170 1 1 1
     0.475479740     0.100000000     0.931769720 1 1 1
     0.501066100     0.100000000     0.959488270 1 1 1
     0.526652450     0.100000000     0.987206820 1 1 1
     0.017057570     0.100000000     0.351812370 1 1 1
     0.042643920     0.100000000     0.379530920 1 1 1
     0.068230280     0.100000000     0.407249470 1 1 1
     0.093816630     0.100000000     0.434968020 1 1 1
     0.119402990     0.100000000     0.462686570 1 1 1
     0.144989340     0.100000000     0.490405120 1 1 1
     0.170575690     0.100000000     0.518123670 1 1 1
     0.196162050     0.100000000     0.545842220 1 1 1
     0.221748400     0.100000000     0.573560770 1 1 1
     0.247334750     0.100000000     0.601279320 1 1 1
     0.272921110     0.100000000     0.628997870 1 1 1
     0.298507460     0.100000000     0.656716420 1 1 1
     0.324093820     0.100000000     0.684434970 1 1 1
     0.349680170     0.100000000     0.712153520 1 1 1
     0.375266520     0.100000000     0.739872070 1 1 1
     0.400852880     0.100000000     0.767590620 1 1 1
     0.426439230     0.100000000     0.795309170 1 1 1
     0.452025590     0.100000000     0.823027720 1 1 1
     0.477611940     0.100000000     0.850746270 1 1 1
     0.503198290     0.100000000     0.878464820 1 1 1
     0.528784650     0.100000000     0.906183370 1 1 1
     0.554371000     0.100000000     0.933901920 1 1 1
     0.579957360     0.100000000     0.961620470 1 1 1
     0.605543710     0.100000000     0.989339020 1 1 1
     0.019189770     0.100000000     0.270788910 1 1 1
     0.044776120     0.100000000     0.298507460 1 1 1
     0.070362470     0.100000000     0.326226010 1 1 1
     0.095948830     0.100000000     0.353944560 1 1 1
     0.121535180     0.100000000     0.381663110 1 1 1
     0.147121540     0.100000000     0.409381660 1 1 1
     0.172707890     0.100000000     0.437100210 1 1 1
     0.198294240     0.100000000     0.464818760 1 1 1
     0.223880600     0.100000000     0.492537310 1 1 1
     0.249466950     0.100000000     0.520255860 1 1 1
     0.275053300     0.100000000     0.547974410 1 1 1
     0.300639660     0.100000000     0.575692960 1 1 1
     0.326226010     0.100000000     0.603411510 1 1 1
     0.351812370     0.100000000     0.631130060 1 1 1
     0.377398720     0.100000000     0.658848610 1 1 1
     0.402985070     0.100000000     0.686567160 1 1 1
     0.428571430     0.100000000     0.714285710 1 1 1
     0.454157780     0.100000000     0.742004260 1 1 1
     0.479744140     0.100000000     0.769722810 1 1 1
     0.505330490     0.100000000     0.797441360 1 1 1
     0.530916840     0.100000000     0.825159910 1 1 1
     0.556503200     0.100000000     0.852878460 1 1 1
     0.582089550     0.100000000     0.880597010 1 1 1
     0.607675910     0.100000000     0.908315570 1 1 1
     0.633262260     0.100000000     0.936034120 1 1 1
     0.658848610     0.100000000     0.963752670 1 1 1
     0.684434970     0.100000000     0.991471220 1 1 1
     0.021321960     0.100000000     0.189765460 1 1 1
     0.046908320     0.100000000     0.217484010 1 1 1
     0.072494670     0.100000000     0.245202560 1 1 1
     0.098081020     0.100000000     0.272921110 1 1 1
     0.123667380     0.100000000     0.300639660 1 1 1
     0.149253730     0.100000000     0.328358210 1 1 1
     0.174840090     0.100000000     0.356076760 1 1 1
     0.200426440     0.100000000     0.383795310 1 1 1
     0.226012790     0.100000000     0.411513860 1 1 1
     0.251599150     0.100000000     0.439232410 1 1 1
     0.277185500     0.100000000     0.466950960 1 1 1
     0.302771860     0.100000000     0.494669510 1 1 1
     0.328358210     0.100000000     0.522388060 1 1 1
     0.353944560     0.100000000     0.550106610 1 1 1
     0.379530920     0.100000000     0.577825160 1 1 1
     0.405117270     0.100000000     0.605543710 1 1 1
     0.430703620     0.100000000     0.633262260 1 1 1
     0.456289980     0.100000000     0.660980810 1 1 1
     0.481876330     0.100000000     0.688699360 1 1 1
     0.507462690     0.100000000     0.716417910 1 1 1
     0.533049040     0.100000000     0.744136460 1 1 1
     0.558635390     0.100000000     0.771855010 1 1 1
     0.584221750     0.100000000     0.799573560 1 1 1
     0.609808100     0.100000000     0.827292110 1 1 1
     0.635394460     0.100000000     0.855010660 1 1 1
     0.660980810     0.100000000     0.882729210 1 1 1
     0.686567160     0.100000000     0.910447760 1 1 1
     0.712153520     0.100000000     0.938166310 1 1 1
     0.737739870     0.100000000     0.965884860 1 1 1
     0.763326230     0.100000000     0.993603410 1 1 1
     0.023454160     0.100000000     0.108742000 1 1 1
     0.049040510     0.100000000     0.136460550 1 1 1
     0.074626870     0.100000000     0.164179100 1 1 1
     0.100213220     0.100000000     0.191897650 1 1 1
     0.125799570     0.100000000     0.219616200 1 1 1
     0.151385930     0.100000000     0.247334750 1 1 1
     0.176972280     0.100000000     0.275053300 1 1 1
     0.202558640     0.100000000     0.302771860 1 1 1
     0.228144990     0.100000000     0.330490410 1 1 1
     0.253731340     0.100000000     0.358208960 1 1 1
     0.279317700     0.100000000     0.385927510 1 1 1
     0.304904050     0.100000000     0.413646060 1 1 1
     0.330490410     0.100000000     0.441364610 1 1 1
     0.356076760     0.100000000     0.469083160 1 1 1
     0.381663110     0.100000000     0.496801710 1 1 1
     0.407249470     0.100000000     0.524520260 1 1 1
     0.432835820     0.100000000     0.552238810 1 1 1
     0.458422170     0.100000000     0.579957360 1 1 1
     0.484008530     0.100000000     0.607675910 1 1 1
     0.509594880     0.100000000     0.635394460 1 1 1
     0.535181240     0.100000000     0.663113010 1 1 1
     0.560767590     0.100000000     0.690831560 1 1 1
     0.586353940     0.100000000     0.718550110 1 1 1
     0.611940300     0.100000000     0.746268660 1 1 1
     0.637526650     0.100000000     0.773987210 1 1 1
     0.663113010     0.100000000     0.801705760 1 1 1
     0.688699360     0.100000000     0.829424310 1 1 1
     0.714285710     0.100000000     0.857142860 1 1 1
     0.739872070     0.100000000     0.884861410 1 1 1
     0.765458420     0.100000000     0.912579960 1 1 1
     0.791044780     0.100000000     0.940298510 1 1 1
     0.816631130     0.100000000     0.968017060 1 1 1
     0.842217480     0.100000000     0.995735610 1 1 1
     0.000000000     0.100000000     0.000000000 1 1 1
     0.025586350     0.100000000     0.027718550 1 1 1
     0.051172710     0.100000000     0.055437100 1 1 1
     0.076759060     0.100000000     0.083155650 1 1 1
     0.102345420     0.100000000     0.110874200 1 1 1
     0.127931770     0.100000000     0.138592750 1 1 1
     0.153518120     0.100000000     0.166311300 1 1 1
     0.179104480     0.100000000     0.194029850 1 1 1
     0.204690830     0.100000000     0.221748400 1 1 1
     0.230277190     0.100000000     0.249466950 1 1 1
     0.255863540     0.100000000     0.277185500 1 1 1
     0.281449890     0.100000000     0.304904050 1 1 1
     0.307036250     0.100000000     0.332622600 1 1 1
     0.332622600     0.100000000     0.360341150 1 1 1
     0.358208960     0.100000000     0.388059700 1 1 1
     0.383795310     0.100000000     0.415778250 1 1 1
     0.409381660     0.100000000     0.443496800 1 1 1
     0.434968020     0.100000000     0.471215350 1 1 1
     0.460554370     0.100000000     0.498933900 1 1 1
     0.486140720     0.100000000     0.526652450 1 1 1
     0.511727080     0.100000000     0.554371000 1 1 1
     0.537313430     0.100000000     0.582089550 1 1 1
     0.562899790     0.100000000     0.609808100 1 1 1
     0.588486140     0.100000000     0.637526650 1 1 1
     0.614072490     0.100000000     0.665245200 1 1 1
     0.639658850     0.100000000     0.692963750 1 1 1
     0.665245200     0.100000000     0.720682300 1 1 1
     0.690831560     0.100000000     0.748400850 1 1 1
     0.716417910     0.100000000     0.776119400 1 1 1
     0.742004260     0.100000000     0.803837950 1 1 1
     0.767590620     0.100000000     0.831556500 1 1 1
     0.793176970     0.100000000     0.859275050 1 1 1
     0.818763330     0.100000000     0.886993600 1 1 1
     0.844349680     0.100000000     0.914712150 1 1 1
     0.869936030     0.100000000     0.942430700 1 1 1
     0.895522390     0.100000000     0.970149250 1 1 1
     0.921108740     0.100000000     0.997867800 1 1 1
     0.078891260     0.100000000     0.002132200 1 1 1
     0.104477610     0.100000000     0.029850750 1 1 1
     0.130063970     0.100000000     0.057569300 1 1 1
     0.155650320     0.100000000     0.085287850 1 1 1
     0.181236670     0.100000000     0.113006400 1 1 1
     0.206823030     0.100000000     0.140724950 1 1 1
     0.232409380     0.100000000     0.168443500 1 1 1
     0.257995740     0.100000000     0.196162050 1 1 1
     0.283582090     0.100000000     0.223880600 1 1 1
     0.309168440     0.100000000     0.251599150 1 1 1
     0.334754800     0.100000000     0.279317700 1 1 1
     0.360341150     0.100000000     0.307036250 1 1 1
     0.385927510     0.100000000     0.334754800 1 1 1
     0.411513860     0.100000000     0.362473350 1 1 1
     0.437100210     0.100000000     0.390191900 1 1 1
     0.462686570     0.100000000     0.417910450 1 1 1
     0.488272920     0.100000000     0.445629000 1 1 1
     0.513859280     0.100000000     0.473347550 1 1 1
     0.539445630     0.100000000     0.501066100 1 1 1
     0.565031980     0.100000000     0.528784650 1 1 1
     0.590618340     0.100000000     0.556503200 1 1 1
     0.616204690     0.100000000     0.584221750 1 1 1
     0.641791040     0.100000000     0.611940300 1 1 1
     0.667377400     0.100000000     0.639658850 1 1 1
     0.692963750     0.100000000     0.667377400 1 1 1
     0.718550110     0.100000000     0.695095950 1 1 1
     0.744136460     0.100000000     0.722814500 1 1 1
     0.769722810     0.100000000     0.750533050 1 1 1
     0.795309170     0.100000000     0.778251600 1 1 1
     0.820895520     0.100000000     0.805970150 1 1 1
     0.846481880     0.100000000     0.833688700 1 1 1
     0.872068230     0.100000000     0.861407250 1 1 1
     0.897654580     0.100000000     0.889125800 1 1 1
     0.923240940     0.100000000     0.916844350 1 1 1
     0.948827290     0.100000000     0.944562900 1 1 1
     0.974413650     0.100000000     0.972281450 1 1 1
     0.157782520     0.100000000     0.004264390 1 1 1
     0.183368870     0.100000000     0.031982940 1 1 1
     0.208955220     0.100000000     0.059701490 1 1 1
     0.234541580     0.100000000     0.087420040 1 1 1
     0.260127930     0.100000000     0.115138590 1 1 1
     0.285714290     0.100000000     0.142857140 1 1 1
     0.311300640     0.100000000     0.170575690 1 1 1
     0.336886990     0.100000000     0.198294240 1 1 1
     0.362473350     0.100000000     0.226012790 1 1 1
     0.388059700     0.100000000     0.253731340 1 1 1
     0.413646060     0.100000000     0.281449890 1 1 1
     0.439232410     0.100000000     0.309168440 1 1 1
     0.464818760     0.100000000     0.336886990 1 1 1
     0.490405120     0.100000000     0.364605540 1 1 1
     0.515991470     0.100000000     0.392324090 1 1 1
     0.541577830     0.100000000     0.420042640 1 1 1
     0.567164180     0.100000000     0.447761190 1 1 1
     0.592750530     0.100000000     0.475479740 1 1 1
     0.618336890     0.100000000     0.503198290 1 1 1
     0.643923240     0.100000000     0.530916840 1 1 1
     0.669509590     0.100000000     0.558635390 1 1 1
     0.695095950     0.100000000     0.586353940 1 1 1
     0.720682300     0.100000000     0.614072490 1 1 1
     0.746268660     0.100000000     0.641791040 1 1 1
     0.771855010     0.100000000     0.669509590 1 1 1
     0.797441360     0.100000000     0.697228140 1 1 1
     0.823027720     0.100000000     0.724946700 1 1 1
     0.848614070     0.100000000     0.752665250 1 1 1
     0.874200430     0.100000000     0.780383800 1 1 1
     0.899786780     0.100000000     0.808102350 1 1 1
     0.925373130     0.100000000     0.835820900 1 1 1
     0.950959490     0.100000000     0.863539450 1 1 1
     0.976545840     0.100000000     0.891258000 1 1 1
     0.236673770     0.100000000     0.006396590 1 1 1
     0.262260130     0.100000000     0.034115140 1 1 1
     0.287846480     0.100000000     0.061833690 1 1 1
     0.313432840     0.100000000     0.089552240 1 1 1
     0.339019190     0.100000000     0.117270790 1 1 1
     0.364605540     0.100000000     0.144989340 1 1 1
     0.390191900     0.100000000     0.172707890 1 1 1
     0.415778250     0.100000000     0.200426440 1 1 1
     0.441364610     0.100000000     0.228144990 1 1 1
     0.466950960     0.100000000     0.255863540 1 1 1
     0.492537310     0.100000000     0.283582090 1 1 1
     0.518123670     0.100000000     0.311300640 1 1 1
     0.543710020     0.100000000     0.339019190 1 1 1
     0.569296380     0.100000000     0.366737740 1 1 1
     0.594882730     0.100000000     0.394456290 1 1 1
     0.620469080     0.100000000     0.422174840 1 1 1
     0.646055440     0.100000000     0.449893390 1 1 1
     0.671641790     0.100000000     0.477611940 1 1 1
     0.697228140     0.100000000     0.505330490 1 1 1
     0.722814500     0.100000000     0.533049040 1 1 1
     0.748400850     0.100000000     0.560767590 1 1 1
     0.773987210     0.100000000     0.588486140 1 1 1
     0.799573560     0.100000000     0.616204690 1 1 1
     0.825159910     0.100000000     0.643923240 1 1 1
     0.850746270     0.100000000     0.671641790 1 1 1
     0.876332620     0.100000000     0.699360340 1 1 1
     0.901918980     0.100000000     0.727078890 1 1 1
     0.927505330     0.100000000     0.754797440 1 1 1
     0.953091680     0.100000000     0.782515990 1 1 1
     0.978678040     0.100000000     0.810234540 1 1 1
     0.315565030     0.100000000     0.008528780 1 1 1
     0.341151390     0.100000000     0.036247330 1 1 1
     0.366737740     0.100000000     0.063965880 1 1 1
     0.392324090     0.100000000     0.091684430 1 1 1
     0.417910450     0.100000000     0.119402990 1 1 1
     0.443496800     0.100000000     0.147121540 1 1 1
     0.469083160     0.100000000     0.174840090 1 1 1
     0.494669510     0.100000000     0.202558640 1 1 1
     0.520255860     0.100000000     0.230277190 1 1 1
     0.545842220     0.100000000     0.257995740 1 1 1
     0.571428570     0.100000000     0.285714290 1 1 1
     0.597014930     0.100000000     0.313432840 1 1 1
     0.622601280     0.100000000     0.341151390 1 1 1
     0.648187630     0.100000000     0.368869940 1 1 1
     0.673773990     0.100000000     0.396588490 1 1 1
     0.699360340     0.100000000     0.424307040 1 1 1
     0.724946700     0.100000000     0.452025590 1 1 1
     0.750533050     0.100000000     0.479744140 1 1 1
     0.776119400     0.100000000     0.507462690 1 1 1
     0.801705760     0.100000000     0.535181240 1 1 1
     0.827292110     0.100000000     0.562899790 1 1 1
     0.852878460     0.100000000     0.590618340 1 1 1
     0.878464820     0.100000000     0.618336890 1 1 1
     0.904051170     0.100000000     0.646055440 1 1 1
     0.929637530     0.100000000     0.673773990 1 1 1
     0.955223880     0.100000000     0.701492540 1 1 1
     0.980810230     0.100000000     0.729211090 1 1 1
     0.394456290     0.100000000     0.010660980 1 1 1
     0.420042640     0.100000000     0.038379530 1 1 1
     0.445629000     0.100000000     0.066098080 1 1 1
     0.471215350     0.100000000     0.093816630 1 1 1
     0.496801710     0.100000000     0.121535180 1 1 1
     0.522388060     0.100000000     0.149253730 1 1 1
     0.547974410     0.100000000     0.176972280 1 1 1
     0.573560770     0.100000000     0.204690830 1 1 1
     0.599147120     0.100000000     0.232409380 1 1 1
     0.624733480     0.100000000     0.260127930 1 1 1
     0.650319830     0.100000000     0.287846480 1 1 1
     0.675906180     0.100000000     0.315565030 1 1 1
     0.701492540     0.100000000     0.343283580 1 1 1
     0.727078890     0.100000000     0.371002130 1 1 1
     0.752665250     0.100000000     0.398720680 1 1 1
     0.778251600     0.100000000     0.426439230 1 1 1
     0.803837950     0.100000000     0.454157780 1 1 1
     0.829424310     0.100000000     0.481876330 1 1 1
     0.855010660     0.100000000     0.509594880 1 1 1
     0.880597010     0.100000000     0.537313430 1 1 1
     0.906183370     0.100000000     0.565031980 1 1 1
     0.931769720     0.100000000     0.592750530 1 1 1
     0.957356080     0.100000000     0.620469080 1 1 1
     0.982942430     0.100000000     0.648187630 1 1 1
     0.473347550     0.100000000     0.012793180 1 1 1
     0.498933900     0.100000000     0.040511730 1 1 1
     0.524520260     0.100000000     0.068230280 1 1 1
     0.550106610     0.100000000     0.095948830 1 1 1
     0.575692960     0.100000000     0.123667380 1 1 1
     0.601279320     0.100000000     0.151385930 1 1 1
     0.626865670     0.100000000     0.179104480 1 1 1
     0.652452030     0.100000000     0.206823030 1 1 1
     0.678038380     0.100000000     0.234541580 1 1 1
     0.703624730     0.100000000     0.262260130 1 1 1
     0.729211090     0.100000000     0.289978680 1 1 1
     0.754797440     0.100000000     0.317697230 1 1 1
     0.780383800     0.100000000     0.345415780 1 1 1
     0.805970150     0.100000000     0.373134330 1 1 1
     0.831556500     0.100000000     0.400852880 1 1 1
     0.857142860     0.100000000     0.428571430 1 1 1
     0.882729210     0.100000000     0.456289980 1 1 1
     0.908315570     0.100000000     0.484008530 1 1 1
     0.933901920     0.100000000     0.511727080 1 1 1
     0.959488270     0.100000000     0.539445630 1 1 1
     0.985074630     0.100000000     0.567164180 1 1 1
     0.552238810     0.100000000     0.014925370 1 1 1
     0.577825160     0.100000000     0.042643920 1 1 1
     0.603411510     0.100000000     0.070362470 1 1 1
     0.628997870     0.100000000     0.098081020 1 1 1
     0.654584220     0.100000000     0.125799570 1 1 1
     0.680170580     0.100000000     0.153518120 1 1 1
     0.705756930     0.100000000     0.181236670 1 1 1
     0.731343280     0.100000000     0.208955220 1 1 1
     0.756929640     0.100000000     0.236673770 1 1 1
     0.782515990     0.100000000     0.264392320 1 1 1
     0.808102350     0.100000000     0.292110870 1 1 1
     0.833688700     0.100000000     0.319829420 1 1 1
     0.859275050     0.100000000     0.347547970 1 1 1
     0.884861410     0.100000000     0.375266520 1 1 1
     0.910447760     0.100000000     0.402985070 1 1 1
     0.936034120     0.100000000     0.430703620 1 1 1
     0.961620470     0.100000000     0.458422170 1 1 1
     0.987206820     0.100000000     0.486140720 1 1 1
     0.631130060     0.100000000     0.017057570 1 1 1
     0.656716420     0.100000000     0.044776120 1 1 1
     0.682302770     0.100000000     0.072494670 1 1 1
     0.707889130     0.100000000     0.100213220 1 1 1
     0.733475480     0.100000000     0.127931770 1 1 1
     0.759061830     0.100000000     0.155650320 1 1 1
     0.784648190     0.100000000     0.183368870 1 1 1
     0.810234540     0.100000000     0.211087420 1 1 1
     0.835820900     0.100000000     0.238805970 1 1 1
     0.861407250     0.100000000     0.266524520 1 1 1
     0.886993600     0.100000000     0.294243070 1 1 1
     0.912579960     0.100000000     0.321961620 1 1 1
     0.938166310     0.100000000     0.349680170 1 1 1
     0.963752670     0.100000000     0.377398720 1 1 1
     0.989339020     0.100000000     0.405117270 1 1 1
     0.710021320     0.100000000     0.019189770 1 1 1
     0.735607680     0.100000000     0.046908320 1 1 1
     0.761194030     0.100000000     0.074626870 1 1 1
     0.786780380     0.100000000     0.102345420 1 1 1
     0.812366740     0.100000000     0.130063970 1 1 1
     0.837953090     0.100000000     0.157782520 1 1 1
     0.863539450     0.100000000     0.185501070 1 1 1
     0.889125800     0.100000000     0.213219620 1 1 1
     0.914712150     0.100000000     0.240938170 1 1 1
     0.940298510     0.100000000     0.268656720 1 1 1
     0.965884860     0.100000000     0.296375270 1 1 1
     0.991471220     0.100000000     0.324093820 1 1 1
     0.788912580     0.100000000     0.021321960 1 1 1
     0.814498930     0.100000000     0.049040510 1 1 1
     0.840085290     0.100000000     0.076759060 1 1 1
     0.865671640     0.100000000     0.104477610 1 1 1
     0.891258000     0.100000000     0.132196160 1 1 1
     0.916844350     0.100000000     0.159914710 1 1 1
     0.942430700     0.100000000     0.187633260 1 1 1
     0.968017060     0.100000000     0.215351810 1 1 1
     0.993603410     0.100000000     0.243070360 1 1 1
     0.867803840     0.100000000     0.023454160 1 1 1
     0.893390190     0.100000000     0.051172710 1 1 1
     0.918976550     0.100000000     0.078891260 1 1 1
     0.944562900     0.100000000     0.106609810 1 1 1
     0.970149250     0.100000000     0.134328360 1 1 1
     0.995735610     0.100000000     0.162046910 1 1 1
     0.946695100     0.100000000     0.025586350 1 1 1
     0.972281450     0.100000000     0.053304900 1 1 1
     0.997867800     0.100000000     0.081023450 1 1 1
     0.054726370     0.100000000     0.920398010 1 1 1
     0.080312720     0.100000000     0.948116560 1 1 1
     0.105899080     0.100000000     0.975835110 1 1 1
     0.056858560     0.100000000     0.839374550 1 1 1
     0.082444920     0.100000000     0.867093100 1 1 1
     0.108031270     0.100000000     0.894811650 1 1 1
     0.133617630     0.100000000     0.922530200 1 1 1
     0.159203980     0.100000000     0.950248750 1 1 1
     0.184790330     0.100000000     0.977967300 1 1 1
     0.058990760     0.100000000     0.758351100 1 1 1
     0.084577110     0.100000000     0.786069650 1 1 1
     0.110163470     0.100000000     0.813788200 1 1 1
     0.135749820     0.100000000     0.841506750 1 1 1
     0.161336180     0.100000000     0.869225300 1 1 1
     0.186922530     0.100000000     0.896943850 1 1 1
     0.212508880     0.100000000     0.924662400 1 1 1
     0.238095240     0.100000000     0.952380950 1 1 1
     0.263681590     0.100000000     0.980099500 1 1 1
     0.061122960     0.100000000     0.677327650 1 1 1
     0.086709310     0.100000000     0.705046200 1 1 1
     0.112295660     0.100000000     0.732764750 1 1 1
     0.137882020     0.100000000     0.760483300 1 1 1
     0.163468370     0.100000000     0.788201850 1 1 1
     0.189054730     0.100000000     0.815920400 1 1 1
     0.214641080     0.100000000     0.843638950 1 1 1
     0.240227430     0.100000000     0.871357500 1 1 1
     0.265813790     0.100000000     0.899076050 1 1 1
     0.291400140     0.100000000     0.926794600 1 1 1
     0.316986500     0.100000000     0.954513150 1 1 1
     0.342572850     0.100000000     0.982231700 1 1 1
     0.063255150     0.100000000     0.596304190 1 1 1
     0.088841510     0.100000000     0.624022740 1 1 1
     0.114427860     0.100000000     0.651741290 1 1 1
     0.140014210     0.100000000     0.679459840 1 1 1
     0.165600570     0.100000000     0.707178390 1 1 1
     0.191186920     0.100000000     0.734896940 1 1 1
     0.216773280     0.100000000     0.762615490 1 1 1
     0.242359630     0.100000000     0.790334040 1 1 1
     0.267945980     0.100000000     0.818052590 1 1 1
     0.293532340     0.100000000     0.845771140 1 1 1
     0.319118690     0.100000000     0.873489690 1 1 1
     0.344705050     0.100000000     0.901208240 1 1 1
     0.370291400     0.100000000     0.928926790 1 1 1
     0.395877750     0.100000000     0.956645340 1 1 1
     0.421464110     0.100000000     0.984363890 1 1 1
     0.065387350     0.100000000     0.515280740 1 1 1
     0.090973700     0.100000000     0.542999290 1 1 1
     0.116560060     0.100000000     0.570717840 1 1 1
     0.142146410     0.100000000     0.598436390 1 1 1
     0.167732760     0.100000000     0.626154940 1 1 1
     0.193319120     0.100000000     0.653873490 1 1 1
     0.218905470     0.100000000     0.681592040 1 1 1
     0.244491830     0.100000000     0.709310590 1 1 1
     0.270078180     0.100000000     0.737029140 1 1 1
     0.295664530     0.100000000     0.764747690 1 1 1
     0.321250890     0.100000000     0.792466240 1 1 1
     0.346837240     0.100000000     0.820184790 1 1 1
     0.372423600     0.100000000     0.847903340 1 1 1
     0.398009950     0.100000000     0.875621890 1 1 1
     0.423596300     0.100000000     0.903340440 1 1 1
     0.449182660     0.100000000     0.931058990 1 1 1
     0.474769010     0.100000000     0.958777540 1 1 1
     0.500355370     0.100000000     0.986496090 1 1 1
     0.067519550     0.100000000     0.434257280 1 1 1
     0.093105900     0.100000000     0.461975830 1 1 1
     0.118692250     0.100000000     0.489694380 1 1 1
     0.144278610     0.100000000     0.517412930 1 1 1
     0.169864960     0.100000000     0.545131480 1 1 1
     0.195451310     0.100000000     0.572850030 1 1 1
     0.221037670     0.100000000     0.600568580 1 1 1