ATOMIC_SPECIES
C 6.000 ./C_ONCV_PBE-1.0.upf

NUMERICAL_ORBITAL
./C_gga_8au_100Ry_2s2p1d.orb

LATTICE_CONSTANT
1.889716

LATTICE_VECTORS
       65.17675000       36.20982117       0.00000000
       1.22975000       74.54963182       0.00000000
       0.00000000       0.00000000       30.00000000

ATOMIC_POSITIONS
Direct

C
0.0
3676
     0.00108814     0.94232862     0.10000000 1 1 1
     0.01958651     0.96191513     0.10000000 1 1 1
     0.03808487     0.98150163     0.10000000 1 1 1
     0.00217628     0.88465724     0.10000000 1 1 1
     0.02067465     0.90424374     0.10000000 1 1 1
     0.03917301     0.92383025     0.10000000 1 1 1
     0.05767138     0.94341676     0.10000000 1 1 1
     0.07616975     0.96300326     0.10000000 1 1 1
     0.09466812     0.98258977     0.10000000 1 1 1
     0.00326442     0.82698585     0.10000000 1 1 1
     0.02176279     0.84657236     0.10000000 1 1 1
     0.04026115     0.86615887     0.10000000 1 1 1
     0.05875952     0.88574538     0.10000000 1 1 1
     0.07725789     0.90533188     0.10000000 1 1 1
     0.09575626     0.92491839     0.10000000 1 1 1
     0.11425462     0.94450490     0.10000000 1 1 1
     0.13275299     0.96409140     0.10000000 1 1 1
     0.15125136     0.98367791     0.10000000 1 1 1
     0.00435256     0.76931447     0.10000000 1 1 1
     0.02285092     0.78890098     0.10000000 1 1 1
     0.04134929     0.80848749     0.10000000 1 1 1
     0.05984766     0.82807399     0.10000000 1 1 1
     0.07834603     0.84766050     0.10000000 1 1 1
     0.09684440     0.86724701     0.10000000 1 1 1
     0.11534276     0.88683351     0.10000000 1 1 1
     0.13384113     0.90642002     0.10000000 1 1 1
     0.15233950     0.92600653     0.10000000 1 1 1
     0.17083787     0.94559304     0.10000000 1 1 1
     0.18933624     0.96517954     0.10000000 1 1 1
     0.20783460     0.98476605     0.10000000 1 1 1
     0.00544070     0.71164309     0.10000000 1 1 1
     0.02393906     0.73122960     0.10000000 1 1 1
     0.04243743     0.75081610     0.10000000 1 1 1
     0.06093580     0.77040261     0.10000000 1 1 1
     0.07943417     0.78998912     0.10000000 1 1 1
     0.09793254     0.80957563     0.10000000 1 1 1
     0.11643090     0.82916213     0.10000000 1 1 1
     0.13492927     0.84874864     0.10000000 1 1 1
     0.15342764     0.86833515     0.10000000 1 1 1
     0.17192601     0.88792165     0.10000000 1 1 1
     0.19042437     0.90750816     0.10000000 1 1 1
     0.20892274     0.92709467     0.10000000 1 1 1
     0.22742111     0.94668118     0.10000000 1 1 1
     0.24591948     0.96626768     0.10000000 1 1 1
     0.26441785     0.98585419     0.10000000 1 1 1
     0.00652884     0.65397171     0.10000000 1 1 1
     0.02502720     0.67355822     0.10000000 1 1 1
     0.04352557     0.69314472     0.10000000 1 1 1
     0.06202394     0.71273123     0.10000000 1 1 1
     0.08052231     0.73231774     0.10000000 1 1 1
     0.09902067     0.75190424     0.10000000 1 1 1
     0.11751904     0.77149075     0.10000000 1 1 1
     0.13601741     0.79107726     0.10000000 1 1 1
     0.15451578     0.81066376     0.10000000 1 1 1
     0.17301415     0.83025027     0.10000000 1 1 1
     0.19151251     0.84983678     0.10000000 1 1 1
     0.21001088     0.86942329     0.10000000 1 1 1
     0.22850925     0.88900979     0.10000000 1 1 1
     0.24700762     0.90859630     0.10000000 1 1 1
     0.26550598     0.92818281     0.10000000 1 1 1
     0.28400435     0.94776931     0.10000000 1 1 1
     0.30250272     0.96735582     0.10000000 1 1 1
     0.32100109     0.98694233     0.10000000 1 1 1
     0.00761697     0.59630033     0.10000000 1 1 1
     0.02611534     0.61588683     0.10000000 1 1 1
     0.04461371     0.63547334     0.10000000 1 1 1
     0.06311208     0.65505985     0.10000000 1 1 1
     0.08161045     0.67464635     0.10000000 1 1 1
     0.10010881     0.69423286     0.10000000 1 1 1
     0.11860718     0.71381937     0.10000000 1 1 1
     0.13710555     0.73340588     0.10000000 1 1 1
     0.15560392     0.75299238     0.10000000 1 1 1
     0.17410229     0.77257889     0.10000000 1 1 1
     0.19260065     0.79216540     0.10000000 1 1 1
     0.21109902     0.81175190     0.10000000 1 1 1
     0.22959739     0.83133841     0.10000000 1 1 1
     0.24809576     0.85092492     0.10000000 1 1 1
     0.26659412     0.87051143     0.10000000 1 1 1
     0.28509249     0.89009793     0.10000000 1 1 1
     0.30359086     0.90968444     0.10000000 1 1 1
     0.32208923     0.92927095     0.10000000 1 1 1
     0.34058760     0.94885745     0.10000000 1 1 1
     0.35908596     0.96844396     0.10000000 1 1 1
     0.37758433     0.98803047     0.10000000 1 1 1
     0.00870511     0.53862894     0.10000000 1 1 1
     0.02720348     0.55821545     0.10000000 1 1 1
     0.04570185     0.57780196     0.10000000 1 1 1
     0.06420022     0.59738847     0.10000000 1 1 1
     0.08269859     0.61697497     0.10000000 1 1 1
     0.10119695     0.63656148     0.10000000 1 1 1
     0.11969532     0.65614799     0.10000000 1 1 1
     0.13819369     0.67573449     0.10000000 1 1 1
     0.15669206     0.69532100     0.10000000 1 1 1
     0.17519042     0.71490751     0.10000000 1 1 1
     0.19368879     0.73449402     0.10000000 1 1 1
     0.21218716     0.75408052     0.10000000 1 1 1
     0.23068553     0.77366703     0.10000000 1 1 1
     0.24918390     0.79325354     0.10000000 1 1 1
     0.26768226     0.81284004     0.10000000 1 1 1
     0.28618063     0.83242655     0.10000000 1 1 1
     0.30467900     0.85201306     0.10000000 1 1 1
     0.32317737     0.87159956     0.10000000 1 1 1
     0.34167573     0.89118607     0.10000000 1 1 1
     0.36017410     0.91077258     0.10000000 1 1 1
     0.37867247     0.93035909     0.10000000 1 1 1
     0.39717084     0.94994559     0.10000000 1 1 1
     0.41566921     0.96953210     0.10000000 1 1 1
     0.43416757     0.98911861     0.10000000 1 1 1
     0.00979325     0.48095756     0.10000000 1 1 1
     0.02829162     0.50054407     0.10000000 1 1 1
     0.04678999     0.52013058     0.10000000 1 1 1
     0.06528836     0.53971708     0.10000000 1 1 1
     0.08378672     0.55930359     0.10000000 1 1 1
     0.10228509     0.57889010     0.10000000 1 1 1
     0.12078346     0.59847661     0.10000000 1 1 1
     0.13928183     0.61806311     0.10000000 1 1 1
     0.15778020     0.63764962     0.10000000 1 1 1
     0.17627856     0.65723613     0.10000000 1 1 1
     0.19477693     0.67682263     0.10000000 1 1 1
     0.21327530     0.69640914     0.10000000 1 1 1
     0.23177367     0.71599565     0.10000000 1 1 1
     0.25027203     0.73558215     0.10000000 1 1 1
     0.26877040     0.75516866     0.10000000 1 1 1
     0.28726877     0.77475517     0.10000000 1 1 1
     0.30576714     0.79434168     0.10000000 1 1 1
     0.32426551     0.81392818     0.10000000 1 1 1
     0.34276387     0.83351469     0.10000000 1 1 1
     0.36126224     0.85310120     0.10000000 1 1 1
     0.37976061     0.87268770     0.10000000 1 1 1
     0.39825898     0.89227421     0.10000000 1 1 1
     0.41675734     0.91186072     0.10000000 1 1 1
     0.43525571     0.93144723     0.10000000 1 1 1
     0.45375408     0.95103373     0.10000000 1 1 1
     0.47225245     0.97062024     0.10000000 1 1 1
     0.49075082     0.99020675     0.10000000 1 1 1
     0.01088139     0.42328618     0.10000000 1 1 1
     0.02937976     0.44287269     0.10000000 1 1 1
     0.04787813     0.46245919     0.10000000 1 1 1
     0.06637650     0.48204570     0.10000000 1 1 1
     0.08487486     0.50163221     0.10000000 1 1 1
     0.10337323     0.52121872     0.10000000 1 1 1
     0.12187160     0.54080522     0.10000000 1 1 1
     0.14036997     0.56039173     0.10000000 1 1 1
     0.15886834     0.57997824     0.10000000 1 1 1
     0.17736670     0.59956474     0.10000000 1 1 1
     0.19586507     0.61915125     0.10000000 1 1 1
     0.21436344     0.63873776     0.10000000 1 1 1
     0.23286181     0.65832427     0.10000000 1 1 1
     0.25136017     0.67791077     0.10000000 1 1 1
     0.26985854     0.69749728     0.10000000 1 1 1
     0.28835691     0.71708379     0.10000000 1 1 1
     0.30685528     0.73667029     0.10000000 1 1 1
     0.32535365     0.75625680     0.10000000 1 1 1
     0.34385201     0.77584331     0.10000000 1 1 1
     0.36235038     0.79542982     0.10000000 1 1 1
     0.38084875     0.81501632     0.10000000 1 1 1
     0.39934712     0.83460283     0.10000000 1 1 1
     0.41784548     0.85418934     0.10000000 1 1 1
     0.43634385     0.87377584     0.10000000 1 1 1
     0.45484222     0.89336235     0.10000000 1 1 1
     0.47334059     0.91294886     0.10000000 1 1 1
     0.49183896     0.93253536     0.10000000 1 1 1
     0.51033732     0.95212187     0.10000000 1 1 1
     0.52883569     0.97170838     0.10000000 1 1 1
     0.54733406     0.99129489     0.10000000 1 1 1
     0.01196953     0.36561480     0.10000000 1 1 1
     0.03046790     0.38520131     0.10000000 1 1 1
     0.04896627     0.40478781     0.10000000 1 1 1
     0.06746464     0.42437432     0.10000000 1 1 1
     0.08596300     0.44396083     0.10000000 1 1 1
     0.10446137     0.46354733     0.10000000 1 1 1
     0.12295974     0.48313384     0.10000000 1 1 1
     0.14145811     0.50272035     0.10000000 1 1 1
     0.15995647     0.52230686     0.10000000 1 1 1
     0.17845484     0.54189336     0.10000000 1 1 1
     0.19695321     0.56147987     0.10000000 1 1 1
     0.21545158     0.58106638     0.10000000 1 1 1
     0.23394995     0.60065288     0.10000000 1 1 1
     0.25244831     0.62023939     0.10000000 1 1 1
     0.27094668     0.63982590     0.10000000 1 1 1
     0.28944505     0.65941240     0.10000000 1 1 1
     0.30794342     0.67899891     0.10000000 1 1 1
     0.32644178     0.69858542     0.10000000 1 1 1
     0.34494015     0.71817193     0.10000000 1 1 1
     0.36343852     0.73775843     0.10000000 1 1 1
     0.38193689     0.75734494     0.10000000 1 1 1
     0.40043526     0.77693145     0.10000000 1 1 1
     0.41893362     0.79651795     0.10000000 1 1 1
     0.43743199     0.81610446     0.10000000 1 1 1
     0.45593036     0.83569097     0.10000000 1 1 1
     0.47442873     0.85527748     0.10000000 1 1 1
     0.49292709     0.87486398     0.10000000 1 1 1
     0.51142546     0.89445049     0.10000000 1 1 1
     0.52992383     0.91403700     0.10000000 1 1 1
     0.54842220     0.93362350     0.10000000 1 1 1
     0.56692057     0.95321001     0.10000000 1 1 1
     0.58541893     0.97279652     0.10000000 1 1 1
     0.60391730     0.99238303     0.10000000 1 1 1
     0.01305767     0.30794342     0.10000000 1 1 1
     0.03155604     0.32752992     0.10000000 1 1 1
     0.05005441     0.34711643     0.10000000 1 1 1
     0.06855277     0.36670294     0.10000000 1 1 1
     0.08705114     0.38628945     0.10000000 1 1 1
     0.10554951     0.40587595     0.10000000 1 1 1
     0.12404788     0.42546246     0.10000000 1 1 1
     0.14254625     0.44504897     0.10000000 1 1 1
     0.16104461     0.46463547     0.10000000 1 1 1
     0.17954298     0.48422198     0.10000000 1 1 1
     0.19804135     0.50380849     0.10000000 1 1 1
     0.21653972     0.52339499     0.10000000 1 1 1
     0.23503808     0.54298150     0.10000000 1 1 1
     0.25353645     0.56256801     0.10000000 1 1 1
     0.27203482     0.58215452     0.10000000 1 1 1
     0.29053319     0.60174102     0.10000000 1 1 1
     0.30903156     0.62132753     0.10000000 1 1 1
     0.32752992     0.64091404     0.10000000 1 1 1
     0.34602829     0.66050054     0.10000000 1 1 1
     0.36452666     0.68008705     0.10000000 1 1 1
     0.38302503     0.69967356     0.10000000 1 1 1
     0.40152339     0.71926007     0.10000000 1 1 1
     0.42002176     0.73884657     0.10000000 1 1 1
     0.43852013     0.75843308     0.10000000 1 1 1
     0.45701850     0.77801959     0.10000000 1 1 1
     0.47551687     0.79760609     0.10000000 1 1 1
     0.49401523     0.81719260     0.10000000 1 1 1
     0.51251360     0.83677911     0.10000000 1 1 1
     0.53101197     0.85636561     0.10000000 1 1 1
     0.54951034     0.87595212     0.10000000 1 1 1
     0.56800871     0.89553863     0.10000000 1 1 1
     0.58650707     0.91512514     0.10000000 1 1 1
     0.60500544     0.93471164     0.10000000 1 1 1
     0.62350381     0.95429815     0.10000000 1 1 1
     0.64200218     0.97388466     0.10000000 1 1 1
     0.66050054     0.99347116     0.10000000 1 1 1
     0.01414581     0.25027203     0.10000000 1 1 1
     0.03264418     0.26985854     0.10000000 1 1 1
     0.05114255     0.28944505     0.10000000 1 1 1
     0.06964091     0.30903156     0.10000000 1 1 1
     0.08813928     0.32861806     0.10000000 1 1 1
     0.10663765     0.34820457     0.10000000 1 1 1
     0.12513602     0.36779108     0.10000000 1 1 1
     0.14363439     0.38737758     0.10000000 1 1 1
     0.16213275     0.40696409     0.10000000 1 1 1
     0.18063112     0.42655060     0.10000000 1 1 1
     0.19912949     0.44613711     0.10000000 1 1 1
     0.21762786     0.46572361     0.10000000 1 1 1
     0.23612622     0.48531012     0.10000000 1 1 1
     0.25462459     0.50489663     0.10000000 1 1 1
     0.27312296     0.52448313     0.10000000 1 1 1
     0.29162133     0.54406964     0.10000000 1 1 1
     0.31011970     0.56365615     0.10000000 1 1 1
     0.32861806     0.58324266     0.10000000 1 1 1
     0.34711643     0.60282916     0.10000000 1 1 1
     0.36561480     0.62241567     0.10000000 1 1 1
     0.38411317     0.64200218     0.10000000 1 1 1
     0.40261153     0.66158868     0.10000000 1 1 1
     0.42110990     0.68117519     0.10000000 1 1 1
     0.43960827     0.70076170     0.10000000 1 1 1
     0.45810664     0.72034820     0.10000000 1 1 1
     0.47660501     0.73993471     0.10000000 1 1 1
     0.49510337     0.75952122     0.10000000 1 1 1
     0.51360174     0.77910773     0.10000000 1 1 1
     0.53210011     0.79869423     0.10000000 1 1 1
     0.55059848     0.81828074     0.10000000 1 1 1
     0.56909684     0.83786725     0.10000000 1 1 1
     0.58759521     0.85745375     0.10000000 1 1 1
     0.60609358     0.87704026     0.10000000 1 1 1
     0.62459195     0.89662677     0.10000000 1 1 1
     0.64309032     0.91621328     0.10000000 1 1 1
     0.66158868     0.93579978     0.10000000 1 1 1
     0.68008705     0.95538629     0.10000000 1 1 1
     0.69858542     0.97497280     0.10000000 1 1 1
     0.71708379     0.99455930     0.10000000 1 1 1
     0.01523395     0.19260065     0.10000000 1 1 1
     0.03373232     0.21218716     0.10000000 1 1 1
     0.05223069     0.23177367     0.10000000 1 1 1
     0.07072905     0.25136017     0.10000000 1 1 1
     0.08922742     0.27094668     0.10000000 1 1 1
     0.10772579     0.29053319     0.10000000 1 1 1
     0.12622416     0.31011970     0.10000000 1 1 1
     0.14472252     0.32970620     0.10000000 1 1 1
     0.16322089     0.34929271     0.10000000 1 1 1
     0.18171926     0.36887922     0.10000000 1 1 1
     0.20021763     0.38846572     0.10000000 1 1 1
     0.21871600     0.40805223     0.10000000 1 1 1
     0.23721436     0.42763874     0.10000000 1 1 1
     0.25571273     0.44722524     0.10000000 1 1 1
     0.27421110     0.46681175     0.10000000 1 1 1
     0.29270947     0.48639826     0.10000000 1 1 1
     0.31120783     0.50598477     0.10000000 1 1 1
     0.32970620     0.52557127     0.10000000 1 1 1
     0.34820457     0.54515778     0.10000000 1 1 1
     0.36670294     0.56474429     0.10000000 1 1 1
     0.38520131     0.58433079     0.10000000 1 1 1
     0.40369967     0.60391730     0.10000000 1 1 1
     0.42219804     0.62350381     0.10000000 1 1 1
     0.44069641     0.64309032     0.10000000 1 1 1
     0.45919478     0.66267682     0.10000000 1 1 1
     0.47769314     0.68226333     0.10000000 1 1 1
     0.49619151     0.70184984     0.10000000 1 1 1
     0.51468988     0.72143634     0.10000000 1 1 1
     0.53318825     0.74102285     0.10000000 1 1 1
     0.55168662     0.76060936     0.10000000 1 1 1
     0.57018498     0.78019587     0.10000000 1 1 1
     0.58868335     0.79978237     0.10000000 1 1 1
     0.60718172     0.81936888     0.10000000 1 1 1
     0.62568009     0.83895539     0.10000000 1 1 1
     0.64417845     0.85854189     0.10000000 1 1 1
     0.66267682     0.87812840     0.10000000 1 1 1
     0.68117519     0.89771491     0.10000000 1 1 1
     0.69967356     0.91730141     0.10000000 1 1 1
     0.71817193     0.93688792     0.10000000 1 1 1
     0.73667029     0.95647443     0.10000000 1 1 1
     0.75516866     0.97606094     0.10000000 1 1 1
     0.77366703     0.99564744     0.10000000 1 1 1
     0.01632209     0.13492927     0.10000000 1 1 1
     0.03482046     0.15451578     0.10000000 1 1 1
     0.05331882     0.17410229     0.10000000 1 1 1
     0.07181719     0.19368879     0.10000000 1 1 1
     0.09031556     0.21327530     0.10000000 1 1 1
     0.10881393     0.23286181     0.10000000 1 1 1
     0.12731230     0.25244831     0.10000000 1 1 1
     0.14581066     0.27203482     0.10000000 1 1 1
     0.16430903     0.29162133     0.10000000 1 1 1
     0.18280740     0.31120783     0.10000000 1 1 1
     0.20130577     0.33079434     0.10000000 1 1 1
     0.21980413     0.35038085     0.10000000 1 1 1
     0.23830250     0.36996736     0.10000000 1 1 1
     0.25680087     0.38955386     0.10000000 1 1 1
     0.27529924     0.40914037     0.10000000 1 1 1
     0.29379761     0.42872688     0.10000000 1 1 1
     0.31229597     0.44831338     0.10000000 1 1 1
     0.33079434     0.46789989     0.10000000 1 1 1
     0.34929271     0.48748640     0.10000000 1 1 1
     0.36779108     0.50707291     0.10000000 1 1 1
     0.38628945     0.52665941     0.10000000 1 1 1
     0.40478781     0.54624592     0.10000000 1 1 1
     0.42328618     0.56583243     0.10000000 1 1 1
     0.44178455     0.58541893     0.10000000 1 1 1
     0.46028292     0.60500544     0.10000000 1 1 1
     0.47878128     0.62459195     0.10000000 1 1 1
     0.49727965     0.64417845     0.10000000 1 1 1
     0.51577802     0.66376496     0.10000000 1 1 1
     0.53427639     0.68335147     0.10000000 1 1 1
     0.55277476     0.70293798     0.10000000 1 1 1
     0.57127312     0.72252448     0.10000000 1 1 1
     0.58977149     0.74211099     0.10000000 1 1 1
     0.60826986     0.76169750     0.10000000 1 1 1
     0.62676823     0.78128400     0.10000000 1 1 1
     0.64526659     0.80087051     0.10000000 1 1 1
     0.66376496     0.82045702     0.10000000 1 1 1
     0.68226333     0.84004353     0.10000000 1 1 1
     0.70076170     0.85963003     0.10000000 1 1 1
     0.71926007     0.87921654     0.10000000 1 1 1
     0.73775843     0.89880305     0.10000000 1 1 1
     0.75625680     0.91838955     0.10000000 1 1 1
     0.77475517     0.93797606     0.10000000 1 1 1
     0.79325354     0.95756257     0.10000000 1 1 1
     0.81175190     0.97714908     0.10000000 1 1 1
     0.83025027     0.99673558     0.10000000 1 1 1
     0.01741023     0.07725789     0.10000000 1 1 1
     0.03590860     0.09684440     0.10000000 1 1 1
     0.05440696     0.11643090     0.10000000 1 1 1
     0.07290533     0.13601741     0.10000000 1 1 1
     0.09140370     0.15560392     0.10000000 1 1 1
     0.10990207     0.17519042     0.10000000 1 1 1
     0.12840044     0.19477693     0.10000000 1 1 1
     0.14689880     0.21436344     0.10000000 1 1 1
     0.16539717     0.23394995     0.10000000 1 1 1
     0.18389554     0.25353645     0.10000000 1 1 1
     0.20239391     0.27312296     0.10000000 1 1 1
     0.22089227     0.29270947     0.10000000 1 1 1
     0.23939064     0.31229597     0.10000000 1 1 1
     0.25788901     0.33188248     0.10000000 1 1 1
     0.27638738     0.35146899     0.10000000 1 1 1
     0.29488575     0.37105550     0.10000000 1 1 1
     0.31338411     0.39064200     0.10000000 1 1 1
     0.33188248     0.41022851     0.10000000 1 1 1
     0.35038085     0.42981502     0.10000000 1 1 1
     0.36887922     0.44940152     0.10000000 1 1 1
     0.38737758     0.46898803     0.10000000 1 1 1
     0.40587595     0.48857454     0.10000000 1 1 1
     0.42437432     0.50816104     0.10000000 1 1 1
     0.44287269     0.52774755     0.10000000 1 1 1
     0.46137106     0.54733406     0.10000000 1 1 1
     0.47986942     0.56692057     0.10000000 1 1 1
     0.49836779     0.58650707     0.10000000 1 1 1
     0.51686616     0.60609358     0.10000000 1 1 1
     0.53536453     0.62568009     0.10000000 1 1 1
     0.55386289     0.64526659     0.10000000 1 1 1
     0.57236126     0.66485310     0.10000000 1 1 1
     0.59085963     0.68443961     0.10000000 1 1 1
     0.60935800     0.70402612     0.10000000 1 1 1
     0.62785637     0.72361262     0.10000000 1 1 1
     0.64635473     0.74319913     0.10000000 1 1 1
     0.66485310     0.76278564     0.10000000 1 1 1
     0.68335147     0.78237214     0.10000000 1 1 1
     0.70184984     0.80195865     0.10000000 1 1 1
     0.72034820     0.82154516     0.10000000 1 1 1
     0.73884657     0.84113166     0.10000000 1 1 1
     0.75734494     0.86071817     0.10000000 1 1 1
     0.77584331     0.88030468     0.10000000 1 1 1
     0.79434168     0.89989119     0.10000000 1 1 1
     0.81284004     0.91947769     0.10000000 1 1 1
     0.83133841     0.93906420     0.10000000 1 1 1
     0.84983678     0.95865071     0.10000000 1 1 1
     0.86833515     0.97823721     0.10000000 1 1 1
     0.88683351     0.99782372     0.10000000 1 1 1
     0.00000000     0.00000000     0.10000000 1 1 1
     0.01849837     0.01958651     0.10000000 1 1 1
     0.03699674     0.03917301     0.10000000 1 1 1
     0.05549510     0.05875952     0.10000000 1 1 1
     0.07399347     0.07834603     0.10000000 1 1 1
     0.09249184     0.09793254     0.10000000 1 1 1
     0.11099021     0.11751904     0.10000000 1 1 1
     0.12948857     0.13710555     0.10000000 1 1 1
     0.14798694     0.15669206     0.10000000 1 1 1
     0.16648531     0.17627856     0.10000000 1 1 1
     0.18498368     0.19586507     0.10000000 1 1 1
     0.20348205     0.21545158     0.10000000 1 1 1
     0.22198041     0.23503808     0.10000000 1 1 1
     0.24047878     0.25462459     0.10000000 1 1 1
     0.25897715     0.27421110     0.10000000 1 1 1
     0.27747552     0.29379761     0.10000000 1 1 1
     0.29597388     0.31338411     0.10000000 1 1 1
     0.31447225     0.33297062     0.10000000 1 1 1
     0.33297062     0.35255713     0.10000000 1 1 1
     0.35146899     0.37214363     0.10000000 1 1 1
     0.36996736     0.39173014     0.10000000 1 1 1
     0.38846572     0.41131665     0.10000000 1 1 1
     0.40696409     0.43090316     0.10000000 1 1 1
     0.42546246     0.45048966     0.10000000 1 1 1
     0.44396083     0.47007617     0.10000000 1 1 1
     0.46245919     0.48966268     0.10000000 1 1 1
     0.48095756     0.50924918     0.10000000 1 1 1
     0.49945593     0.52883569     0.10000000 1 1 1
     0.51795430     0.54842220     0.10000000 1 1 1
     0.53645267     0.56800871     0.10000000 1 1 1
     0.55495103     0.58759521     0.10000000 1 1 1
     0.57344940     0.60718172     0.10000000 1 1 1
     0.59194777     0.62676823     0.10000000 1 1 1
     0.61044614     0.64635473     0.10000000 1 1 1
     0.62894450     0.66594124     0.10000000 1 1 1
     0.64744287     0.68552775     0.10000000 1 1 1
     0.66594124     0.70511425     0.10000000 1 1 1
     0.68443961     0.72470076     0.10000000 1 1 1
     0.70293798     0.74428727     0.10000000 1 1 1
     0.72143634     0.76387378     0.10000000 1 1 1
     0.73993471     0.78346028     0.10000000 1 1 1
     0.75843308     0.80304679     0.10000000 1 1 1
     0.77693145     0.82263330     0.10000000 1 1 1
     0.79542982     0.84221980     0.10000000 1 1 1
     0.81392818     0.86180631     0.10000000 1 1 1
     0.83242655     0.88139282     0.10000000 1 1 1
     0.85092492     0.90097933     0.10000000 1 1 1
     0.86942329     0.92056583     0.10000000 1 1 1
     0.88792165     0.94015234     0.10000000 1 1 1
     0.90642002     0.95973885     0.10000000 1 1 1
     0.92491839     0.97932535     0.10000000 1 1 1
     0.94341676     0.99891186     0.10000000 1 1 1
     0.05658324     0.00108814     0.10000000 1 1 1
     0.07508161     0.02067465     0.10000000 1 1 1
     0.09357998     0.04026115     0.10000000 1 1 1
     0.11207835     0.05984766     0.10000000 1 1 1
     0.13057671     0.07943417     0.10000000 1 1 1
     0.14907508     0.09902067     0.10000000 1 1 1
     0.16757345     0.11860718     0.10000000 1 1 1
     0.18607182     0.13819369     0.10000000 1 1 1
     0.20457018     0.15778020     0.10000000 1 1 1
     0.22306855     0.17736670     0.10000000 1 1 1
     0.24156692     0.19695321     0.10000000 1 1 1
     0.26006529     0.21653972     0.10000000 1 1 1
     0.27856366     0.23612622     0.10000000 1 1 1
     0.29706202     0.25571273     0.10000000 1 1 1
     0.31556039     0.27529924     0.10000000 1 1 1
     0.33405876     0.29488575     0.10000000 1 1 1
     0.35255713     0.31447225     0.10000000 1 1 1
     0.37105550     0.33405876     0.10000000 1 1 1
     0.38955386     0.35364527     0.10000000 1 1 1
     0.40805223     0.37323177     0.10000000 1 1 1
     0.42655060     0.39281828     0.10000000 1 1 1
     0.44504897     0.41240479     0.10000000 1 1 1
     0.46354733     0.43199129     0.10000000 1 1 1
     0.48204570     0.45157780     0.10000000 1 1 1
     0.50054407     0.47116431     0.10000000 1 1 1
     0.51904244     0.49075082     0.10000000 1 1 1
     0.53754081     0.51033732     0.10000000 1 1 1
     0.55603917     0.52992383     0.10000000 1 1 1
     0.57453754     0.54951034     0.10000000 1 1 1
     0.59303591     0.56909684     0.10000000 1 1 1
     0.61153428     0.58868335     0.10000000 1 1 1
     0.63003264     0.60826986     0.10000000 1 1 1
     0.64853101     0.62785637     0.10000000 1 1 1
     0.66702938     0.64744287     0.10000000 1 1 1
     0.68552775     0.66702938     0.10000000 1 1 1
     0.70402612     0.68661589     0.10000000 1 1 1
     0.72252448     0.70620239     0.10000000 1 1 1
     0.74102285     0.72578890     0.10000000 1 1 1
     0.75952122     0.74537541     0.10000000 1 1 1
     0.77801959     0.76496192     0.10000000 1 1 1
     0.79651795     0.78454842     0.10000000 1 1 1
     0.81501632     0.80413493     0.10000000 1 1 1
     0.83351469     0.82372144     0.10000000 1 1 1
     0.85201306     0.84330794     0.10000000 1 1 1
     0.87051143     0.86289445     0.10000000 1 1 1
     0.88900979     0.88248096     0.10000000 1 1 1
     0.90750816     0.90206746     0.10000000 1 1 1
     0.92600653     0.92165397     0.10000000 1 1 1
     0.94450490     0.94124048     0.10000000 1 1 1
     0.96300326     0.96082699     0.10000000 1 1 1
     0.98150163     0.98041349     0.10000000 1 1 1
     0.11316649     0.00217628     0.10000000 1 1 1
     0.13166485     0.02176279     0.10000000 1 1 1
     0.15016322     0.04134929     0.10000000 1 1 1
     0.16866159     0.06093580     0.10000000 1 1 1
     0.18715996     0.08052231     0.10000000 1 1 1
     0.20565832     0.10010881     0.10000000 1 1 1
     0.22415669     0.11969532     0.10000000 1 1 1
     0.24265506     0.13928183     0.10000000 1 1 1
     0.26115343     0.15886834     0.10000000 1 1 1
     0.27965180     0.17845484     0.10000000 1 1 1
     0.29815016     0.19804135     0.10000000 1 1 1
     0.31664853     0.21762786     0.10000000 1 1 1
     0.33514690     0.23721436     0.10000000 1 1 1
     0.35364527     0.25680087     0.10000000 1 1 1
     0.37214363     0.27638738     0.10000000 1 1 1
     0.39064200     0.29597388     0.10000000 1 1 1
     0.40914037     0.31556039     0.10000000 1 1 1
     0.42763874     0.33514690     0.10000000 1 1 1
     0.44613711     0.35473341     0.10000000 1 1 1
     0.46463547     0.37431991     0.10000000 1 1 1
     0.48313384     0.39390642     0.10000000 1 1 1
     0.50163221     0.41349293     0.10000000 1 1 1
     0.52013058     0.43307943     0.10000000 1 1 1
     0.53862894     0.45266594     0.10000000 1 1 1
     0.55712731     0.47225245     0.10000000 1 1 1
     0.57562568     0.49183896     0.10000000 1 1 1
     0.59412405     0.51142546     0.10000000 1 1 1
     0.61262242     0.53101197     0.10000000 1 1 1
     0.63112078     0.55059848     0.10000000 1 1 1
     0.64961915     0.57018498     0.10000000 1 1 1
     0.66811752     0.58977149     0.10000000 1 1 1
     0.68661589     0.60935800     0.10000000 1 1 1
     0.70511425     0.62894450     0.10000000 1 1 1
     0.72361262     0.64853101     0.10000000 1 1 1
     0.74211099     0.66811752     0.10000000 1 1 1
     0.76060936     0.68770403     0.10000000 1 1 1
     0.77910773     0.70729053     0.10000000 1 1 1
     0.79760609     0.72687704     0.10000000 1 1 1
     0.81610446     0.74646355     0.10000000 1 1 1
     0.83460283     0.76605005     0.10000000 1 1 1
     0.85310120     0.78563656     0.10000000 1 1 1
     0.87159956     0.80522307     0.10000000 1 1 1
     0.89009793     0.82480958     0.10000000 1 1 1
     0.90859630     0.84439608     0.10000000 1 1 1
     0.92709467     0.86398259     0.10000000 1 1 1
     0.94559304     0.88356910     0.10000000 1 1 1
     0.96409140     0.90315560     0.10000000 1 1 1
     0.98258977     0.92274211     0.10000000 1 1 1
     0.16974973     0.00326442     0.10000000 1 1 1
     0.18824810     0.02285092     0.10000000 1 1 1
     0.20674646     0.04243743     0.10000000 1 1 1
     0.22524483     0.06202394     0.10000000 1 1 1
     0.24374320     0.08161045     0.10000000 1 1 1
     0.26224157     0.10119695     0.10000000 1 1 1
     0.28073993     0.12078346     0.10000000 1 1 1
     0.29923830     0.14036997     0.10000000 1 1 1
     0.31773667     0.15995647     0.10000000 1 1 1
     0.33623504     0.17954298     0.10000000 1 1 1
     0.35473341     0.19912949     0.10000000 1 1 1