ATOMIC_SPECIES
C 6.000 /mnt/C_ONCV_PBE-1.0.upf

NUMERICAL_ORBITAL
/mnt/C_gga_8au_100Ry_2s2p1d.orb

LATTICE_CONSTANT
1.889716

LATTICE_VECTORS
       28.2842493808       14.9099260336       0.0000000000
       -13.9896411349       26.5384615401       0.0000000000
       14.1421246904       7.4549630168       27.6898626400

ATOMIC_POSITIONS
Direct

C
0.0
676
     0.005917160     0.100000000     0.863905330 1 1 1
     0.047337280     0.100000000     0.911242600 1 1 1
     0.088757400     0.100000000     0.958579880 1 1 1
     0.011834320     0.100000000     0.727810650 1 1 1
     0.053254440     0.100000000     0.775147930 1 1 1
     0.094674560     0.100000000     0.822485210 1 1 1
     0.136094670     0.100000000     0.869822490 1 1 1
     0.177514790     0.100000000     0.917159760 1 1 1
     0.218934910     0.100000000     0.964497040 1 1 1
     0.017751480     0.100000000     0.591715980 1 1 1
     0.059171600     0.100000000     0.639053250 1 1 1
     0.100591720     0.100000000     0.686390530 1 1 1
     0.142011830     0.100000000     0.733727810 1 1 1
     0.183431950     0.100000000     0.781065090 1 1 1
     0.224852070     0.100000000     0.828402370 1 1 1
     0.266272190     0.100000000     0.875739640 1 1 1
     0.307692310     0.100000000     0.923076920 1 1 1
     0.349112430     0.100000000     0.970414200 1 1 1
     0.023668640     0.100000000     0.455621300 1 1 1
     0.065088760     0.100000000     0.502958580 1 1 1
     0.106508880     0.100000000     0.550295860 1 1 1
     0.147928990     0.100000000     0.597633140 1 1 1
     0.189349110     0.100000000     0.644970410 1 1 1
     0.230769230     0.100000000     0.692307690 1 1 1
     0.272189350     0.100000000     0.739644970 1 1 1
     0.313609470     0.100000000     0.786982250 1 1 1
     0.355029590     0.100000000     0.834319530 1 1 1
     0.396449700     0.100000000     0.881656800 1 1 1
     0.437869820     0.100000000     0.928994080 1 1 1
     0.479289940     0.100000000     0.976331360 1 1 1
     0.029585800     0.100000000     0.319526630 1 1 1
     0.071005920     0.100000000     0.366863910 1 1 1
     0.112426040     0.100000000     0.414201180 1 1 1
     0.153846150     0.100000000     0.461538460 1 1 1
     0.195266270     0.100000000     0.508875740 1 1 1
     0.236686390     0.100000000     0.556213020 1 1 1
     0.278106510     0.100000000     0.603550300 1 1 1
     0.319526630     0.100000000     0.650887570 1 1 1
     0.360946750     0.100000000     0.698224850 1 1 1
     0.402366860     0.100000000     0.745562130 1 1 1
     0.443786980     0.100000000     0.792899410 1 1 1
     0.485207100     0.100000000     0.840236690 1 1 1
     0.526627220     0.100000000     0.887573960 1 1 1
     0.568047340     0.100000000     0.934911240 1 1 1
     0.609467460     0.100000000     0.982248520 1 1 1
     0.035502960     0.100000000     0.183431950 1 1 1
     0.076923080     0.100000000     0.230769230 1 1 1
     0.118343200     0.100000000     0.278106510 1 1 1
     0.159763310     0.100000000     0.325443790 1 1 1
     0.201183430     0.100000000     0.372781070 1 1 1
     0.242603550     0.100000000     0.420118340 1 1 1
     0.284023670     0.100000000     0.467455620 1 1 1
     0.325443790     0.100000000     0.514792900 1 1 1
     0.366863910     0.100000000     0.562130180 1 1 1
     0.408284020     0.100000000     0.609467460 1 1 1
     0.449704140     0.100000000     0.656804730 1 1 1
     0.491124260     0.100000000     0.704142010 1 1 1
     0.532544380     0.100000000     0.751479290 1 1 1
     0.573964500     0.100000000     0.798816570 1 1 1
     0.615384620     0.100000000     0.846153850 1 1 1
     0.656804730     0.100000000     0.893491120 1 1 1
     0.698224850     0.100000000     0.940828400 1 1 1
     0.739644970     0.100000000     0.988165680 1 1 1
     0.000000000     0.100000000     0.000000000 1 1 1
     0.041420120     0.100000000     0.047337280 1 1 1
     0.082840240     0.100000000     0.094674560 1 1 1
     0.124260360     0.100000000     0.142011830 1 1 1
     0.165680470     0.100000000     0.189349110 1 1 1
     0.207100590     0.100000000     0.236686390 1 1 1
     0.248520710     0.100000000     0.284023670 1 1 1
     0.289940830     0.100000000     0.331360950 1 1 1
     0.331360950     0.100000000     0.378698220 1 1 1
     0.372781070     0.100000000     0.426035500 1 1 1
     0.414201180     0.100000000     0.473372780 1 1 1
     0.455621300     0.100000000     0.520710060 1 1 1
     0.497041420     0.100000000     0.568047340 1 1 1
     0.538461540     0.100000000     0.615384620 1 1 1
     0.579881660     0.100000000     0.662721890 1 1 1
     0.621301780     0.100000000     0.710059170 1 1 1
     0.662721890     0.100000000     0.757396450 1 1 1
     0.704142010     0.100000000     0.804733730 1 1 1
     0.745562130     0.100000000     0.852071010 1 1 1
     0.786982250     0.100000000     0.899408280 1 1 1
     0.828402370     0.100000000     0.946745560 1 1 1
     0.869822490     0.100000000     0.994082840 1 1 1
     0.130177510     0.100000000     0.005917160 1 1 1
     0.171597630     0.100000000     0.053254440 1 1 1
     0.213017750     0.100000000     0.100591720 1 1 1
     0.254437870     0.100000000     0.147928990 1 1 1
     0.295857990     0.100000000     0.195266270 1 1 1
     0.337278110     0.100000000     0.242603550 1 1 1
     0.378698220     0.100000000     0.289940830 1 1 1
     0.420118340     0.100000000     0.337278110 1 1 1
     0.461538460     0.100000000     0.384615380 1 1 1
     0.502958580     0.100000000     0.431952660 1 1 1
     0.544378700     0.100000000     0.479289940 1 1 1
     0.585798820     0.100000000     0.526627220 1 1 1
     0.627218930     0.100000000     0.573964500 1 1 1
     0.668639050     0.100000000     0.621301780 1 1 1
     0.710059170     0.100000000     0.668639050 1 1 1
     0.751479290     0.100000000     0.715976330 1 1 1
     0.792899410     0.100000000     0.763313610 1 1 1
     0.834319530     0.100000000     0.810650890 1 1 1
     0.875739640     0.100000000     0.857988170 1 1 1
     0.917159760     0.100000000     0.905325440 1 1 1
     0.958579880     0.100000000     0.952662720 1 1 1
     0.260355030     0.100000000     0.011834320 1 1 1
     0.301775150     0.100000000     0.059171600 1 1 1
     0.343195270     0.100000000     0.106508880 1 1 1
     0.384615380     0.100000000     0.153846150 1 1 1
     0.426035500     0.100000000     0.201183430 1 1 1
     0.467455620     0.100000000     0.248520710 1 1 1
     0.508875740     0.100000000     0.295857990 1 1 1
     0.550295860     0.100000000     0.343195270 1 1 1
     0.591715980     0.100000000     0.390532540 1 1 1
     0.633136090     0.100000000     0.437869820 1 1 1
     0.674556210     0.100000000     0.485207100 1 1 1
     0.715976330     0.100000000     0.532544380 1 1 1
     0.757396450     0.100000000     0.579881660 1 1 1
     0.798816570     0.100000000     0.627218930 1 1 1
     0.840236690     0.100000000     0.674556210 1 1 1
     0.881656800     0.100000000     0.721893490 1 1 1
     0.923076920     0.100000000     0.769230770 1 1 1
     0.964497040     0.100000000     0.816568050 1 1 1
     0.390532540     0.100000000     0.017751480 1 1 1
     0.431952660     0.100000000     0.065088760 1 1 1
     0.473372780     0.100000000     0.112426040 1 1 1
     0.514792900     0.100000000     0.159763310 1 1 1
     0.556213020     0.100000000     0.207100590 1 1 1
     0.597633140     0.100000000     0.254437870 1 1 1
     0.639053250     0.100000000     0.301775150 1 1 1
     0.680473370     0.100000000     0.349112430 1 1 1
     0.721893490     0.100000000     0.396449700 1 1 1
     0.763313610     0.100000000     0.443786980 1 1 1
     0.804733730     0.100000000     0.491124260 1 1 1
     0.846153850     0.100000000     0.538461540 1 1 1
     0.887573960     0.100000000     0.585798820 1 1 1
     0.928994080     0.100000000     0.633136090 1 1 1
     0.970414200     0.100000000     0.680473370 1 1 1
     0.520710060     0.100000000     0.023668640 1 1 1
     0.562130180     0.100000000     0.071005920 1 1 1
     0.603550300     0.100000000     0.118343200 1 1 1
     0.644970410     0.100000000     0.165680470 1 1 1
     0.686390530     0.100000000     0.213017750 1 1 1
     0.727810650     0.100000000     0.260355030 1 1 1
     0.769230770     0.100000000     0.307692310 1 1 1
     0.810650890     0.100000000     0.355029590 1 1 1
     0.852071010     0.100000000     0.402366860 1 1 1
     0.893491120     0.100000000     0.449704140 1 1 1
     0.934911240     0.100000000     0.497041420 1 1 1
     0.976331360     0.100000000     0.544378700 1 1 1
     0.650887570     0.100000000     0.029585800 1 1 1
     0.692307690     0.100000000     0.076923080 1 1 1
     0.733727810     0.100000000     0.124260360 1 1 1
     0.775147930     0.100000000     0.171597630 1 1 1
     0.816568050     0.100000000     0.218934910 1 1 1
     0.857988170     0.100000000     0.266272190 1 1 1
     0.899408280     0.100000000     0.313609470 1 1 1
     0.940828400     0.100000000     0.360946750 1 1 1
     0.982248520     0.100000000     0.408284020 1 1 1
     0.781065090     0.100000000     0.035502960 1 1 1
     0.822485210     0.100000000     0.082840240 1 1 1
     0.863905330     0.100000000     0.130177510 1 1 1
     0.905325440     0.100000000     0.177514790 1 1 1
     0.946745560     0.100000000     0.224852070 1 1 1
     0.988165680     0.100000000     0.272189350 1 1 1
     0.911242600     0.100000000     0.041420120 1 1 1
     0.952662720     0.100000000     0.088757400 1 1 1
     0.994082840     0.100000000     0.136094670 1 1 1
     0.092702170     0.100000000     0.867850100 1 1 1
     0.134122290     0.100000000     0.915187370 1 1 1
     0.175542410     0.100000000     0.962524650 1 1 1
     0.098619330     0.100000000     0.731755420 1 1 1
     0.140039450     0.100000000     0.779092700 1 1 1
     0.181459570     0.100000000     0.826429980 1 1 1
     0.222879680     0.100000000     0.873767260 1 1 1
     0.264299800     0.100000000     0.921104530 1 1 1
     0.305719920     0.100000000     0.968441810 1 1 1
     0.104536490     0.100000000     0.595660750 1 1 1
     0.145956610     0.100000000     0.642998020 1 1 1
     0.187376730     0.100000000     0.690335300 1 1 1
     0.228796840     0.100000000     0.737672580 1 1 1
     0.270216960     0.100000000     0.785009860 1 1 1
     0.311637080     0.100000000     0.832347140 1 1 1
     0.353057200     0.100000000     0.879684420 1 1 1
     0.394477320     0.100000000     0.927021690 1 1 1
     0.435897440     0.100000000     0.974358970 1 1 1
     0.110453650     0.100000000     0.459566070 1 1 1
     0.151873770     0.100000000     0.506903350 1 1 1
     0.193293890     0.100000000     0.554240630 1 1 1
     0.234714000     0.100000000     0.601577910 1 1 1
     0.276134120     0.100000000     0.648915180 1 1 1
     0.317554240     0.100000000     0.696252460 1 1 1
     0.358974360     0.100000000     0.743589740 1 1 1
     0.400394480     0.100000000     0.790927020 1 1 1
     0.441814600     0.100000000     0.838264300 1 1 1
     0.483234710     0.100000000     0.885601580 1 1 1
     0.524654830     0.100000000     0.932938850 1 1 1
     0.566074950     0.100000000     0.980276130 1 1 1
     0.116370810     0.100000000     0.323471400 1 1 1
     0.157790930     0.100000000     0.370808680 1 1 1
     0.199211050     0.100000000     0.418145950 1 1 1
     0.240631160     0.100000000     0.465483230 1 1 1
     0.282051280     0.100000000     0.512820510 1 1 1
     0.323471400     0.100000000     0.560157790 1 1 1
     0.364891520     0.100000000     0.607495070 1 1 1
     0.406311640     0.100000000     0.654832340 1 1 1
     0.447731760     0.100000000     0.702169620 1 1 1
     0.489151870     0.100000000     0.749506900 1 1 1
     0.530571990     0.100000000     0.796844180 1 1 1
     0.571992110     0.100000000     0.844181460 1 1 1
     0.613412230     0.100000000     0.891518730 1 1 1
     0.654832350     0.100000000     0.938856010 1 1 1
     0.696252470     0.100000000     0.986193290 1 1 1
     0.122287970     0.100000000     0.187376720 1 1 1
     0.163708090     0.100000000     0.234714000 1 1 1
     0.205128210     0.100000000     0.282051280 1 1 1
     0.246548320     0.100000000     0.329388560 1 1 1
     0.287968440     0.100000000     0.376725840 1 1 1
     0.329388560     0.100000000     0.424063110 1 1 1
     0.370808680     0.100000000     0.471400390 1 1 1
     0.412228800     0.100000000     0.518737670 1 1 1
     0.453648920     0.100000000     0.566074950 1 1 1
     0.495069030     0.100000000     0.613412230 1 1 1
     0.536489150     0.100000000     0.660749500 1 1 1
     0.577909270     0.100000000     0.708086780 1 1 1
     0.619329390     0.100000000     0.755424060 1 1 1
     0.660749510     0.100000000     0.802761340 1 1 1
     0.702169630     0.100000000     0.850098620 1 1 1
     0.743589740     0.100000000     0.897435890 1 1 1
     0.785009860     0.100000000     0.944773170 1 1 1
     0.826429980     0.100000000     0.992110450 1 1 1
     0.086785010     0.100000000     0.003944770 1 1 1
     0.128205130     0.100000000     0.051282050 1 1 1
     0.169625250     0.100000000     0.098619330 1 1 1
     0.211045370     0.100000000     0.145956600 1 1 1
     0.252465480     0.100000000     0.193293880 1 1 1
     0.293885600     0.100000000     0.240631160 1 1 1
     0.335305720     0.100000000     0.287968440 1 1 1
     0.376725840     0.100000000     0.335305720 1 1 1
     0.418145960     0.100000000     0.382643000 1 1 1
     0.459566080     0.100000000     0.429980270 1 1 1
     0.500986190     0.100000000     0.477317550 1 1 1
     0.542406310     0.100000000     0.524654830 1 1 1
     0.583826430     0.100000000     0.571992110 1 1 1
     0.625246550     0.100000000     0.619329390 1 1 1
     0.666666670     0.100000000     0.666666660 1 1 1
     0.708086790     0.100000000     0.714003940 1 1 1
     0.749506900     0.100000000     0.761341220 1 1 1
     0.790927020     0.100000000     0.808678500 1 1 1
     0.832347140     0.100000000     0.856015780 1 1 1
     0.873767260     0.100000000     0.903353050 1 1 1
     0.915187380     0.100000000     0.950690330 1 1 1
     0.956607500     0.100000000     0.998027610 1 1 1
     0.216962520     0.100000000     0.009861930 1 1 1
     0.258382640     0.100000000     0.057199210 1 1 1
     0.299802760     0.100000000     0.104536490 1 1 1
     0.341222880     0.100000000     0.151873760 1 1 1
     0.382643000     0.100000000     0.199211040 1 1 1
     0.424063120     0.100000000     0.246548320 1 1 1
     0.465483230     0.100000000     0.293885600 1 1 1
     0.506903350     0.100000000     0.341222880 1 1 1
     0.548323470     0.100000000     0.388560160 1 1 1
     0.589743590     0.100000000     0.435897430 1 1 1
     0.631163710     0.100000000     0.483234710 1 1 1
     0.672583830     0.100000000     0.530571990 1 1 1
     0.714003940     0.100000000     0.577909270 1 1 1
     0.755424060     0.100000000     0.625246550 1 1 1
     0.796844180     0.100000000     0.672583820 1 1 1
     0.838264300     0.100000000     0.719921100 1 1 1
     0.879684420     0.100000000     0.767258380 1 1 1
     0.921104540     0.100000000     0.814595660 1 1 1
     0.962524650     0.100000000     0.861932940 1 1 1
     0.003944770     0.100000000     0.909270210 1 1 1
     0.045364890     0.100000000     0.956607490 1 1 1
     0.347140040     0.100000000     0.015779090 1 1 1
     0.388560160     0.100000000     0.063116370 1 1 1
     0.429980280     0.100000000     0.110453650 1 1 1
     0.471400390     0.100000000     0.157790920 1 1 1
     0.512820510     0.100000000     0.205128200 1 1 1
     0.554240630     0.100000000     0.252465480 1 1 1
     0.595660750     0.100000000     0.299802760 1 1 1
     0.637080870     0.100000000     0.347140040 1 1 1
     0.678500990     0.100000000     0.394477310 1 1 1
     0.719921100     0.100000000     0.441814590 1 1 1
     0.761341220     0.100000000     0.489151870 1 1 1
     0.802761340     0.100000000     0.536489150 1 1 1
     0.844181460     0.100000000     0.583826430 1 1 1
     0.885601580     0.100000000     0.631163710 1 1 1
     0.927021700     0.100000000     0.678500980 1 1 1
     0.968441810     0.100000000     0.725838260 1 1 1
     0.009861930     0.100000000     0.773175540 1 1 1
     0.051282050     0.100000000     0.820512820 1 1 1
     0.477317550     0.100000000     0.021696250 1 1 1
     0.518737670     0.100000000     0.069033530 1 1 1
     0.560157790     0.100000000     0.116370810 1 1 1
     0.601577910     0.100000000     0.163708080 1 1 1
     0.642998030     0.100000000     0.211045360 1 1 1
     0.684418150     0.100000000     0.258382640 1 1 1
     0.725838260     0.100000000     0.305719920 1 1 1
     0.767258380     0.100000000     0.353057200 1 1 1
     0.808678500     0.100000000     0.400394470 1 1 1
     0.850098620     0.100000000     0.447731750 1 1 1
     0.891518740     0.100000000     0.495069030 1 1 1
     0.932938860     0.100000000     0.542406310 1 1 1
     0.974358970     0.100000000     0.589743590 1 1 1
     0.015779090     0.100000000     0.637080870 1 1 1
     0.057199210     0.100000000     0.684418140 1 1 1
     0.607495070     0.100000000     0.027613410 1 1 1
     0.648915190     0.100000000     0.074950690 1 1 1
     0.690335310     0.100000000     0.122287970 1 1 1
     0.731755420     0.100000000     0.169625240 1 1 1
     0.773175540     0.100000000     0.216962520 1 1 1
     0.814595660     0.100000000     0.264299800 1 1 1
     0.856015780     0.100000000     0.311637080 1 1 1
     0.897435900     0.100000000     0.358974360 1 1 1
     0.938856020     0.100000000     0.406311630 1 1 1
     0.980276130     0.100000000     0.453648910 1 1 1
     0.021696250     0.100000000     0.500986190 1 1 1
     0.063116370     0.100000000     0.548323470 1 1 1
     0.737672580     0.100000000     0.033530570 1 1 1
     0.779092700     0.100000000     0.080867850 1 1 1
     0.820512820     0.100000000     0.128205130 1 1 1
     0.861932940     0.100000000     0.175542400 1 1 1
     0.903353060     0.100000000     0.222879680 1 1 1
     0.944773180     0.100000000     0.270216960 1 1 1
     0.986193290     0.100000000     0.317554240 1 1 1
     0.027613410     0.100000000     0.364891520 1 1 1
     0.069033530     0.100000000     0.412228790 1 1 1
     0.867850100     0.100000000     0.039447730 1 1 1
     0.909270220     0.100000000     0.086785010 1 1 1
     0.950690340     0.100000000     0.134122290 1 1 1
     0.992110450     0.100000000     0.181459560 1 1 1
     0.033530570     0.100000000     0.228796840 1 1 1
     0.074950690     0.100000000     0.276134120 1 1 1
     0.998027610     0.100000000     0.045364890 1 1 1
     0.039447730     0.100000000     0.092702170 1 1 1
     0.080867850     0.100000000     0.140039450 1 1 1
     0.041420120     0.213613330     0.911242600 1 1 1
     0.088757400     0.213613330     0.952662720 1 1 1
     0.136094670     0.213613330     0.994082840 1 1 1
     0.035502960     0.213613330     0.781065090 1 1 1
     0.082840240     0.213613330     0.822485210 1 1 1
     0.130177510     0.213613330     0.863905330 1 1 1
     0.177514790     0.213613330     0.905325440 1 1 1
     0.224852070     0.213613330     0.946745560 1 1 1
     0.272189350     0.213613330     0.988165680 1 1 1
     0.029585800     0.213613330     0.650887570 1 1 1
     0.076923080     0.213613330     0.692307690 1 1 1
     0.124260360     0.213613330     0.733727810 1 1 1
     0.171597630     0.213613330     0.775147930 1 1 1
     0.218934910     0.213613330     0.816568050 1 1 1
     0.266272190     0.213613330     0.857988170 1 1 1
     0.313609470     0.213613330     0.899408280 1 1 1
     0.360946750     0.213613330     0.940828400 1 1 1
     0.408284020     0.213613330     0.982248520 1 1 1
     0.023668640     0.213613330     0.520710060 1 1 1
     0.071005920     0.213613330     0.562130180 1 1 1
     0.118343200     0.213613330     0.603550300 1 1 1
     0.165680470     0.213613330     0.644970410 1 1 1
     0.213017750     0.213613330     0.686390530 1 1 1
     0.260355030     0.213613330     0.727810650 1 1 1
     0.307692310     0.213613330     0.769230770 1 1 1
     0.355029590     0.213613330     0.810650890 1 1 1
     0.402366860     0.213613330     0.852071010 1 1 1
     0.449704140     0.213613330     0.893491120 1 1 1
     0.497041420     0.213613330     0.934911240 1 1 1
     0.544378700     0.213613330     0.976331360 1 1 1
     0.017751480     0.213613330     0.390532540 1 1 1
     0.065088760     0.213613330     0.431952660 1 1 1
     0.112426040     0.213613330     0.473372780 1 1 1
     0.159763310     0.213613330     0.514792900 1 1 1
     0.207100590     0.213613330     0.556213020 1 1 1
     0.254437870     0.213613330     0.597633140 1 1 1
     0.301775150     0.213613330     0.639053250 1 1 1
     0.349112430     0.213613330     0.680473370 1 1 1
     0.396449700     0.213613330     0.721893490 1 1 1
     0.443786980     0.213613330     0.763313610 1 1 1
     0.491124260     0.213613330     0.804733730 1 1 1
     0.538461540     0.213613330     0.846153850 1 1 1
     0.585798820     0.213613330     0.887573960 1 1 1
     0.633136090     0.213613330     0.928994080 1 1 1
     0.680473370     0.213613330     0.970414200 1 1 1
     0.011834320     0.213613330     0.260355030 1 1 1
     0.059171600     0.213613330     0.301775150 1 1 1
     0.106508880     0.213613330     0.343195270 1 1 1
     0.153846150     0.213613330     0.384615380 1 1 1
     0.201183430     0.213613330     0.426035500 1 1 1
     0.248520710     0.213613330     0.467455620 1 1 1
     0.295857990     0.213613330     0.508875740 1 1 1
     0.343195270     0.213613330     0.550295860 1 1 1
     0.390532540     0.213613330     0.591715980 1 1 1
     0.437869820     0.213613330     0.633136090 1 1 1
     0.485207100     0.213613330     0.674556210 1 1 1
     0.532544380     0.213613330     0.715976330 1 1 1
     0.579881660     0.213613330     0.757396450 1 1 1
     0.627218930     0.213613330     0.798816570 1 1 1
     0.674556210     0.213613330     0.840236690 1 1 1
     0.721893490     0.213613330     0.881656800 1 1 1
     0.769230770     0.213613330     0.923076920 1 1 1
     0.816568050     0.213613330     0.964497040 1 1 1
     0.005917160     0.213613330     0.130177510 1 1 1
     0.053254440     0.213613330     0.171597630 1 1 1
     0.100591720     0.213613330     0.213017750 1 1 1
     0.147928990     0.213613330     0.254437870 1 1 1
     0.195266270     0.213613330     0.295857990 1 1 1
     0.242603550     0.213613330     0.337278110 1 1 1
     0.289940830     0.213613330     0.378698220 1 1 1
     0.337278110     0.213613330     0.420118340 1 1 1
     0.384615380     0.213613330     0.461538460 1 1 1
     0.431952660     0.213613330     0.502958580 1 1 1
     0.479289940     0.213613330     0.544378700 1 1 1
     0.526627220     0.213613330     0.585798820 1 1 1
     0.573964500     0.213613330     0.627218930 1 1 1
     0.621301780     0.213613330     0.668639050 1 1 1
     0.668639050     0.213613330     0.710059170 1 1 1
     0.715976330     0.213613330     0.751479290 1 1 1
     0.763313610     0.213613330     0.792899410 1 1 1
     0.810650890     0.213613330     0.834319530 1 1 1
     0.857988170     0.213613330     0.875739640 1 1 1
     0.905325440     0.213613330     0.917159760 1 1 1
     0.952662720     0.213613330     0.958579880 1 1 1
     0.000000000     0.213613330     0.000000000 1 1 1
     0.047337280     0.213613330     0.041420120 1 1 1
     0.094674560     0.213613330     0.082840240 1 1 1
     0.142011830     0.213613330     0.124260360 1 1 1
     0.189349110     0.213613330     0.165680470 1 1 1
     0.236686390     0.213613330     0.207100590 1 1 1
     0.284023670     0.213613330     0.248520710 1 1 1
     0.331360950     0.213613330     0.289940830 1 1 1
     0.378698220     0.213613330     0.331360950 1 1 1
     0.426035500     0.213613330     0.372781070 1 1 1
     0.473372780     0.213613330     0.414201180 1 1 1
     0.520710060     0.213613330     0.455621300 1 1 1
     0.568047340     0.213613330     0.497041420 1 1 1
     0.615384620     0.213613330     0.538461540 1 1 1
     0.662721890     0.213613330     0.579881660 1 1 1
     0.710059170     0.213613330     0.621301780 1 1 1
     0.757396450     0.213613330     0.662721890 1 1 1
     0.804733730     0.213613330     0.704142010 1 1 1
     0.852071010     0.213613330     0.745562130 1 1 1
     0.899408280     0.213613330     0.786982250 1 1 1
     0.946745560     0.213613330     0.828402370 1 1 1
     0.994082840     0.213613330     0.869822490 1 1 1
     0.183431950     0.213613330     0.035502960 1 1 1
     0.230769230     0.213613330     0.076923080 1 1 1
     0.278106510     0.213613330     0.118343200 1 1 1
     0.325443790     0.213613330     0.159763310 1 1 1
     0.372781070     0.213613330     0.201183430 1 1 1
     0.420118340     0.213613330     0.242603550 1 1 1
     0.467455620     0.213613330     0.284023670 1 1 1
     0.514792900     0.213613330     0.325443790 1 1 1
     0.562130180     0.213613330     0.366863910 1 1 1
     0.609467460     0.213613330     0.408284020 1 1 1
     0.656804730     0.213613330     0.449704140 1 1 1
     0.704142010     0.213613330     0.491124260 1 1 1
     0.751479290     0.213613330     0.532544380 1 1 1
     0.798816570     0.213613330     0.573964500 1 1 1
     0.846153850     0.213613330     0.615384620 1 1 1
     0.893491120     0.213613330     0.656804730 1 1 1
     0.940828400     0.213613330     0.698224850 1 1 1
     0.988165680     0.213613330     0.739644970 1 1 1
     0.319526630     0.213613330     0.029585800 1 1 1
     0.366863910     0.213613330     0.071005920 1 1 1
     0.414201180     0.213613330     0.112426040 1 1 1
     0.461538460     0.213613330     0.153846150 1 1 1
     0.508875740     0.213613330     0.195266270 1 1 1
     0.556213020     0.213613330     0.236686390 1 1 1
     0.603550300     0.213613330     0.278106510 1 1 1
     0.650887570     0.213613330     0.319526630 1 1 1
     0.698224850     0.213613330     0.360946750 1 1 1
     0.745562130     0.213613330     0.402366860 1 1 1
     0.792899410     0.213613330     0.443786980 1 1 1
     0.840236690     0.213613330     0.485207100 1 1 1
     0.887573960     0.213613330     0.526627220 1 1 1
     0.934911240     0.213613330     0.568047340 1 1 1
     0.982248520     0.213613330     0.609467460 1 1 1
     0.455621300     0.213613330     0.023668640 1 1 1
     0.502958580     0.213613330     0.065088760 1 1 1
     0.550295860     0.213613330     0.106508880 1 1 1
     0.597633140     0.213613330     0.147928990 1 1 1
     0.644970410     0.213613330     0.189349110 1 1 1
     0.692307690     0.213613330     0.230769230 1 1 1
     0.739644970     0.213613330     0.272189350 1 1 1
     0.786982250     0.213613330     0.313609470 1 1 1
     0.834319530     0.213613330     0.355029590 1 1 1
     0.881656800     0.213613330     0.396449700 1 1 1
     0.928994080     0.213613330     0.437869820 1 1 1
     0.976331360     0.213613330     0.479289940 1 1 1
     0.591715980     0.213613330     0.017751480 1 1 1
     0.639053250     0.213613330     0.059171600 1 1 1
     0.686390530     0.213613330     0.100591720 1 1 1
     0.733727810     0.213613330     0.142011830 1 1 1
     0.781065090     0.213613330     0.183431950 1 1 1
     0.828402370     0.213613330     0.224852070 1 1 1
     0.875739640     0.213613330     0.266272190 1 1 1
     0.923076920     0.213613330     0.307692310 1 1 1
     0.970414200     0.213613330     0.349112430 1 1 1
     0.727810650     0.213613330     0.011834320 1 1 1
     0.775147930     0.213613330     0.053254440 1 1 1
     0.822485210     0.213613330     0.094674560 1 1 1
     0.869822490     0.213613330     0.136094670 1 1 1
     0.917159760     0.213613330     0.177514790 1 1 1
     0.964497040     0.213613330     0.218934910 1 1 1
     0.863905330     0.213613330     0.005917160 1 1 1
     0.911242600     0.213613330     0.047337280 1 1 1
     0.958579880     0.213613330     0.088757400 1 1 1
     0.132149900     0.213613330     0.907297830 1 1 1
     0.179487180     0.213613330     0.948717950 1 1 1
     0.226824460     0.213613330     0.990138060 1 1 1
     0.126232740     0.213613330     0.777120310 1 1 1
     0.173570020     0.213613330     0.818540430 1 1 1
     0.220907300     0.213613330     0.859960550 1 1 1
     0.268244580     0.213613330     0.901380670 1 1 1
     0.315581850     0.213613330     0.942800790 1 1 1
     0.362919130     0.213613330     0.984220900 1 1 1
     0.120315580     0.213613330     0.646942800 1 1 1
     0.167652860     0.213613330     0.688362920 1 1 1
     0.214990140     0.213613330     0.729783030 1 1 1
     0.262327420     0.213613330     0.771203150 1 1 1
     0.309664690     0.213613330     0.812623270 1 1 1
     0.357001970     0.213613330     0.854043390 1 1 1
     0.404339250     0.213613330     0.895463510 1 1 1
     0.451676530     0.213613330     0.936883630 1 1 1
     0.499013810     0.213613330     0.978303740 1 1 1
     0.114398420     0.213613330     0.516765280 1 1 1
     0.161735700     0.213613330     0.558185400 1 1 1
     0.209072980     0.213613330     0.599605520 1 1 1
     0.256410260     0.213613330     0.641025640 1 1 1
     0.303747530     0.213613330     0.682445760 1 1 1
     0.351084810     0.213613330     0.723865880 1 1 1
     0.398422090     0.213613330     0.765285990 1 1 1
     0.445759370     0.213613330     0.806706110 1 1 1
     0.493096650     0.213613330     0.848126230 1 1 1
     0.540433920     0.213613330     0.889546350 1 1 1
     0.587771200     0.213613330     0.930966470 1 1 1
     0.635108480     0.213613330     0.972386590 1 1 1
     0.108481260     0.213613330     0.386587770 1 1 1