ATOMIC_SPECIES
C 6.000 ./C_ONCV_PBE-1.0.upf

NUMERICAL_ORBITAL
./C_gga_8au_100Ry_2s2p1d.orb

LATTICE_CONSTANT
1.889716

LATTICE_VECTORS
       65.1767520699       36.2098223200       0.0000000000
       -14.5694464685       26.2246302090       0.0000000000
       32.5883685189       18.1049069843       64.5706653457

ATOMIC_POSITIONS
Direct

C
0.0
3676
     0.001088140     0.100000000     0.942328620 1 1 1
     0.019586510     0.100000000     0.961915130 1 1 1
     0.038084870     0.100000000     0.981501630 1 1 1
     0.002176280     0.100000000     0.884657240 1 1 1
     0.020674650     0.100000000     0.904243740 1 1 1
     0.039173010     0.100000000     0.923830250 1 1 1
     0.057671380     0.100000000     0.943416760 1 1 1
     0.076169750     0.100000000     0.963003260 1 1 1
     0.094668120     0.100000000     0.982589770 1 1 1
     0.003264420     0.100000000     0.826985850 1 1 1
     0.021762790     0.100000000     0.846572360 1 1 1
     0.040261150     0.100000000     0.866158870 1 1 1
     0.058759520     0.100000000     0.885745380 1 1 1
     0.077257890     0.100000000     0.905331880 1 1 1
     0.095756260     0.100000000     0.924918390 1 1 1
     0.114254620     0.100000000     0.944504900 1 1 1
     0.132752990     0.100000000     0.964091400 1 1 1
     0.151251360     0.100000000     0.983677910 1 1 1
     0.004352560     0.100000000     0.769314470 1 1 1
     0.022850920     0.100000000     0.788900980 1 1 1
     0.041349290     0.100000000     0.808487490 1 1 1
     0.059847660     0.100000000     0.828073990 1 1 1
     0.078346030     0.100000000     0.847660500 1 1 1
     0.096844400     0.100000000     0.867247010 1 1 1
     0.115342760     0.100000000     0.886833510 1 1 1
     0.133841130     0.100000000     0.906420020 1 1 1
     0.152339500     0.100000000     0.926006530 1 1 1
     0.170837870     0.100000000     0.945593040 1 1 1
     0.189336240     0.100000000     0.965179540 1 1 1
     0.207834600     0.100000000     0.984766050 1 1 1
     0.005440700     0.100000000     0.711643090 1 1 1
     0.023939060     0.100000000     0.731229600 1 1 1
     0.042437430     0.100000000     0.750816100 1 1 1
     0.060935800     0.100000000     0.770402610 1 1 1
     0.079434170     0.100000000     0.789989120 1 1 1
     0.097932540     0.100000000     0.809575630 1 1 1
     0.116430900     0.100000000     0.829162130 1 1 1
     0.134929270     0.100000000     0.848748640 1 1 1
     0.153427640     0.100000000     0.868335150 1 1 1
     0.171926010     0.100000000     0.887921650 1 1 1
     0.190424370     0.100000000     0.907508160 1 1 1
     0.208922740     0.100000000     0.927094670 1 1 1
     0.227421110     0.100000000     0.946681180 1 1 1
     0.245919480     0.100000000     0.966267680 1 1 1
     0.264417850     0.100000000     0.985854190 1 1 1
     0.006528840     0.100000000     0.653971710 1 1 1
     0.025027200     0.100000000     0.673558220 1 1 1
     0.043525570     0.100000000     0.693144720 1 1 1
     0.062023940     0.100000000     0.712731230 1 1 1
     0.080522310     0.100000000     0.732317740 1 1 1
     0.099020670     0.100000000     0.751904240 1 1 1
     0.117519040     0.100000000     0.771490750 1 1 1
     0.136017410     0.100000000     0.791077260 1 1 1
     0.154515780     0.100000000     0.810663760 1 1 1
     0.173014150     0.100000000     0.830250270 1 1 1
     0.191512510     0.100000000     0.849836780 1 1 1
     0.210010880     0.100000000     0.869423290 1 1 1
     0.228509250     0.100000000     0.889009790 1 1 1
     0.247007620     0.100000000     0.908596300 1 1 1
     0.265505980     0.100000000     0.928182810 1 1 1
     0.284004350     0.100000000     0.947769310 1 1 1
     0.302502720     0.100000000     0.967355820 1 1 1
     0.321001090     0.100000000     0.986942330 1 1 1
     0.007616970     0.100000000     0.596300330 1 1 1
     0.026115340     0.100000000     0.615886830 1 1 1
     0.044613710     0.100000000     0.635473340 1 1 1
     0.063112080     0.100000000     0.655059850 1 1 1
     0.081610450     0.100000000     0.674646350 1 1 1
     0.100108810     0.100000000     0.694232860 1 1 1
     0.118607180     0.100000000     0.713819370 1 1 1
     0.137105550     0.100000000     0.733405880 1 1 1
     0.155603920     0.100000000     0.752992380 1 1 1
     0.174102290     0.100000000     0.772578890 1 1 1
     0.192600650     0.100000000     0.792165400 1 1 1
     0.211099020     0.100000000     0.811751900 1 1 1
     0.229597390     0.100000000     0.831338410 1 1 1
     0.248095760     0.100000000     0.850924920 1 1 1
     0.266594120     0.100000000     0.870511430 1 1 1
     0.285092490     0.100000000     0.890097930 1 1 1
     0.303590860     0.100000000     0.909684440 1 1 1
     0.322089230     0.100000000     0.929270950 1 1 1
     0.340587600     0.100000000     0.948857450 1 1 1
     0.359085960     0.100000000     0.968443960 1 1 1
     0.377584330     0.100000000     0.988030470 1 1 1
     0.008705110     0.100000000     0.538628940 1 1 1
     0.027203480     0.100000000     0.558215450 1 1 1
     0.045701850     0.100000000     0.577801960 1 1 1
     0.064200220     0.100000000     0.597388470 1 1 1
     0.082698590     0.100000000     0.616974970 1 1 1
     0.101196950     0.100000000     0.636561480 1 1 1
     0.119695320     0.100000000     0.656147990 1 1 1
     0.138193690     0.100000000     0.675734490 1 1 1
     0.156692060     0.100000000     0.695321000 1 1 1
     0.175190420     0.100000000     0.714907510 1 1 1
     0.193688790     0.100000000     0.734494020 1 1 1
     0.212187160     0.100000000     0.754080520 1 1 1
     0.230685530     0.100000000     0.773667030 1 1 1
     0.249183900     0.100000000     0.793253540 1 1 1
     0.267682260     0.100000000     0.812840040 1 1 1
     0.286180630     0.100000000     0.832426550 1 1 1
     0.304679000     0.100000000     0.852013060 1 1 1
     0.323177370     0.100000000     0.871599560 1 1 1
     0.341675730     0.100000000     0.891186070 1 1 1
     0.360174100     0.100000000     0.910772580 1 1 1
     0.378672470     0.100000000     0.930359090 1 1 1
     0.397170840     0.100000000     0.949945590 1 1 1
     0.415669210     0.100000000     0.969532100 1 1 1
     0.434167570     0.100000000     0.989118610 1 1 1
     0.009793250     0.100000000     0.480957560 1 1 1
     0.028291620     0.100000000     0.500544070 1 1 1
     0.046789990     0.100000000     0.520130580 1 1 1
     0.065288360     0.100000000     0.539717080 1 1 1
     0.083786720     0.100000000     0.559303590 1 1 1
     0.102285090     0.100000000     0.578890100 1 1 1
     0.120783460     0.100000000     0.598476610 1 1 1
     0.139281830     0.100000000     0.618063110 1 1 1
     0.157780200     0.100000000     0.637649620 1 1 1
     0.176278560     0.100000000     0.657236130 1 1 1
     0.194776930     0.100000000     0.676822630 1 1 1
     0.213275300     0.100000000     0.696409140 1 1 1
     0.231773670     0.100000000     0.715995650 1 1 1
     0.250272030     0.100000000     0.735582150 1 1 1
     0.268770400     0.100000000     0.755168660 1 1 1
     0.287268770     0.100000000     0.774755170 1 1 1
     0.305767140     0.100000000     0.794341680 1 1 1
     0.324265510     0.100000000     0.813928180 1 1 1
     0.342763870     0.100000000     0.833514690 1 1 1
     0.361262240     0.100000000     0.853101200 1 1 1
     0.379760610     0.100000000     0.872687700 1 1 1
     0.398258980     0.100000000     0.892274210 1 1 1
     0.416757340     0.100000000     0.911860720 1 1 1
     0.435255710     0.100000000     0.931447230 1 1 1
     0.453754080     0.100000000     0.951033730 1 1 1
     0.472252450     0.100000000     0.970620240 1 1 1
     0.490750820     0.100000000     0.990206750 1 1 1
     0.010881390     0.100000000     0.423286180 1 1 1
     0.029379760     0.100000000     0.442872690 1 1 1
     0.047878130     0.100000000     0.462459190 1 1 1
     0.066376500     0.100000000     0.482045700 1 1 1
     0.084874860     0.100000000     0.501632210 1 1 1
     0.103373230     0.100000000     0.521218720 1 1 1
     0.121871600     0.100000000     0.540805220 1 1 1
     0.140369970     0.100000000     0.560391730 1 1 1
     0.158868340     0.100000000     0.579978240 1 1 1
     0.177366700     0.100000000     0.599564740 1 1 1
     0.195865070     0.100000000     0.619151250 1 1 1
     0.214363440     0.100000000     0.638737760 1 1 1
     0.232861810     0.100000000     0.658324270 1 1 1
     0.251360170     0.100000000     0.677910770 1 1 1
     0.269858540     0.100000000     0.697497280 1 1 1
     0.288356910     0.100000000     0.717083790 1 1 1
     0.306855280     0.100000000     0.736670290 1 1 1
     0.325353650     0.100000000     0.756256800 1 1 1
     0.343852010     0.100000000     0.775843310 1 1 1
     0.362350380     0.100000000     0.795429820 1 1 1
     0.380848750     0.100000000     0.815016320 1 1 1
     0.399347120     0.100000000     0.834602830 1 1 1
     0.417845480     0.100000000     0.854189340 1 1 1
     0.436343850     0.100000000     0.873775840 1 1 1
     0.454842220     0.100000000     0.893362350 1 1 1
     0.473340590     0.100000000     0.912948860 1 1 1
     0.491838960     0.100000000     0.932535360 1 1 1
     0.510337320     0.100000000     0.952121870 1 1 1
     0.528835690     0.100000000     0.971708380 1 1 1
     0.547334060     0.100000000     0.991294890 1 1 1
     0.011969530     0.100000000     0.365614800 1 1 1
     0.030467900     0.100000000     0.385201310 1 1 1
     0.048966270     0.100000000     0.404787810 1 1 1
     0.067464640     0.100000000     0.424374320 1 1 1
     0.085963000     0.100000000     0.443960830 1 1 1
     0.104461370     0.100000000     0.463547330 1 1 1
     0.122959740     0.100000000     0.483133840 1 1 1
     0.141458110     0.100000000     0.502720350 1 1 1
     0.159956470     0.100000000     0.522306860 1 1 1
     0.178454840     0.100000000     0.541893360 1 1 1
     0.196953210     0.100000000     0.561479870 1 1 1
     0.215451580     0.100000000     0.581066380 1 1 1
     0.233949950     0.100000000     0.600652880 1 1 1
     0.252448310     0.100000000     0.620239390 1 1 1
     0.270946680     0.100000000     0.639825900 1 1 1
     0.289445050     0.100000000     0.659412400 1 1 1
     0.307943420     0.100000000     0.678998910 1 1 1
     0.326441780     0.100000000     0.698585420 1 1 1
     0.344940150     0.100000000     0.718171930 1 1 1
     0.363438520     0.100000000     0.737758430 1 1 1
     0.381936890     0.100000000     0.757344940 1 1 1
     0.400435260     0.100000000     0.776931450 1 1 1
     0.418933620     0.100000000     0.796517950 1 1 1
     0.437431990     0.100000000     0.816104460 1 1 1
     0.455930360     0.100000000     0.835690970 1 1 1
     0.474428730     0.100000000     0.855277480 1 1 1
     0.492927090     0.100000000     0.874863980 1 1 1
     0.511425460     0.100000000     0.894450490 1 1 1
     0.529923830     0.100000000     0.914037000 1 1 1
     0.548422200     0.100000000     0.933623500 1 1 1
     0.566920570     0.100000000     0.953210010 1 1 1
     0.585418930     0.100000000     0.972796520 1 1 1
     0.603917300     0.100000000     0.992383030 1 1 1
     0.013057670     0.100000000     0.307943420 1 1 1
     0.031556040     0.100000000     0.327529920 1 1 1
     0.050054410     0.100000000     0.347116430 1 1 1
     0.068552770     0.100000000     0.366702940 1 1 1
     0.087051140     0.100000000     0.386289450 1 1 1
     0.105549510     0.100000000     0.405875950 1 1 1
     0.124047880     0.100000000     0.425462460 1 1 1
     0.142546250     0.100000000     0.445048970 1 1 1
     0.161044610     0.100000000     0.464635470 1 1 1
     0.179542980     0.100000000     0.484221980 1 1 1
     0.198041350     0.100000000     0.503808490 1 1 1
     0.216539720     0.100000000     0.523394990 1 1 1
     0.235038080     0.100000000     0.542981500 1 1 1
     0.253536450     0.100000000     0.562568010 1 1 1
     0.272034820     0.100000000     0.582154520 1 1 1
     0.290533190     0.100000000     0.601741020 1 1 1
     0.309031560     0.100000000     0.621327530 1 1 1
     0.327529920     0.100000000     0.640914040 1 1 1
     0.346028290     0.100000000     0.660500540 1 1 1
     0.364526660     0.100000000     0.680087050 1 1 1
     0.383025030     0.100000000     0.699673560 1 1 1
     0.401523390     0.100000000     0.719260070 1 1 1
     0.420021760     0.100000000     0.738846570 1 1 1
     0.438520130     0.100000000     0.758433080 1 1 1
     0.457018500     0.100000000     0.778019590 1 1 1
     0.475516870     0.100000000     0.797606090 1 1 1
     0.494015230     0.100000000     0.817192600 1 1 1
     0.512513600     0.100000000     0.836779110 1 1 1
     0.531011970     0.100000000     0.856365610 1 1 1
     0.549510340     0.100000000     0.875952120 1 1 1
     0.568008710     0.100000000     0.895538630 1 1 1
     0.586507070     0.100000000     0.915125140 1 1 1
     0.605005440     0.100000000     0.934711640 1 1 1
     0.623503810     0.100000000     0.954298150 1 1 1
     0.642002180     0.100000000     0.973884660 1 1 1
     0.660500540     0.100000000     0.993471160 1 1 1
     0.014145810     0.100000000     0.250272030 1 1 1
     0.032644180     0.100000000     0.269858540 1 1 1
     0.051142550     0.100000000     0.289445050 1 1 1
     0.069640910     0.100000000     0.309031560 1 1 1
     0.088139280     0.100000000     0.328618060 1 1 1
     0.106637650     0.100000000     0.348204570 1 1 1
     0.125136020     0.100000000     0.367791080 1 1 1
     0.143634390     0.100000000     0.387377580 1 1 1
     0.162132750     0.100000000     0.406964090 1 1 1
     0.180631120     0.100000000     0.426550600 1 1 1
     0.199129490     0.100000000     0.446137110 1 1 1
     0.217627860     0.100000000     0.465723610 1 1 1
     0.236126220     0.100000000     0.485310120 1 1 1
     0.254624590     0.100000000     0.504896630 1 1 1
     0.273122960     0.100000000     0.524483130 1 1 1
     0.291621330     0.100000000     0.544069640 1 1 1
     0.310119700     0.100000000     0.563656150 1 1 1
     0.328618060     0.100000000     0.583242660 1 1 1
     0.347116430     0.100000000     0.602829160 1 1 1
     0.365614800     0.100000000     0.622415670 1 1 1
     0.384113170     0.100000000     0.642002180 1 1 1
     0.402611530     0.100000000     0.661588680 1 1 1
     0.421109900     0.100000000     0.681175190 1 1 1
     0.439608270     0.100000000     0.700761700 1 1 1
     0.458106640     0.100000000     0.720348200 1 1 1
     0.476605010     0.100000000     0.739934710 1 1 1
     0.495103370     0.100000000     0.759521220 1 1 1
     0.513601740     0.100000000     0.779107730 1 1 1
     0.532100110     0.100000000     0.798694230 1 1 1
     0.550598480     0.100000000     0.818280740 1 1 1
     0.569096840     0.100000000     0.837867250 1 1 1
     0.587595210     0.100000000     0.857453750 1 1 1
     0.606093580     0.100000000     0.877040260 1 1 1
     0.624591950     0.100000000     0.896626770 1 1 1
     0.643090320     0.100000000     0.916213280 1 1 1
     0.661588680     0.100000000     0.935799780 1 1 1
     0.680087050     0.100000000     0.955386290 1 1 1
     0.698585420     0.100000000     0.974972800 1 1 1
     0.717083790     0.100000000     0.994559300 1 1 1
     0.015233950     0.100000000     0.192600650 1 1 1
     0.033732320     0.100000000     0.212187160 1 1 1
     0.052230690     0.100000000     0.231773670 1 1 1
     0.070729050     0.100000000     0.251360170 1 1 1
     0.089227420     0.100000000     0.270946680 1 1 1
     0.107725790     0.100000000     0.290533190 1 1 1
     0.126224160     0.100000000     0.310119700 1 1 1
     0.144722520     0.100000000     0.329706200 1 1 1
     0.163220890     0.100000000     0.349292710 1 1 1
     0.181719260     0.100000000     0.368879220 1 1 1
     0.200217630     0.100000000     0.388465720 1 1 1
     0.218716000     0.100000000     0.408052230 1 1 1
     0.237214360     0.100000000     0.427638740 1 1 1
     0.255712730     0.100000000     0.447225240 1 1 1
     0.274211100     0.100000000     0.466811750 1 1 1
     0.292709470     0.100000000     0.486398260 1 1 1
     0.311207830     0.100000000     0.505984770 1 1 1
     0.329706200     0.100000000     0.525571270 1 1 1
     0.348204570     0.100000000     0.545157780 1 1 1
     0.366702940     0.100000000     0.564744290 1 1 1
     0.385201310     0.100000000     0.584330790 1 1 1
     0.403699670     0.100000000     0.603917300 1 1 1
     0.422198040     0.100000000     0.623503810 1 1 1
     0.440696410     0.100000000     0.643090320 1 1 1
     0.459194780     0.100000000     0.662676820 1 1 1
     0.477693140     0.100000000     0.682263330 1 1 1
     0.496191510     0.100000000     0.701849840 1 1 1
     0.514689880     0.100000000     0.721436340 1 1 1
     0.533188250     0.100000000     0.741022850 1 1 1
     0.551686620     0.100000000     0.760609360 1 1 1
     0.570184980     0.100000000     0.780195870 1 1 1
     0.588683350     0.100000000     0.799782370 1 1 1
     0.607181720     0.100000000     0.819368880 1 1 1
     0.625680090     0.100000000     0.838955390 1 1 1
     0.644178450     0.100000000     0.858541890 1 1 1
     0.662676820     0.100000000     0.878128400 1 1 1
     0.681175190     0.100000000     0.897714910 1 1 1
     0.699673560     0.100000000     0.917301410 1 1 1
     0.718171930     0.100000000     0.936887920 1 1 1
     0.736670290     0.100000000     0.956474430 1 1 1
     0.755168660     0.100000000     0.976060940 1 1 1
     0.773667030     0.100000000     0.995647440 1 1 1
     0.016322090     0.100000000     0.134929270 1 1 1
     0.034820460     0.100000000     0.154515780 1 1 1
     0.053318820     0.100000000     0.174102290 1 1 1
     0.071817190     0.100000000     0.193688790 1 1 1
     0.090315560     0.100000000     0.213275300 1 1 1
     0.108813930     0.100000000     0.232861810 1 1 1
     0.127312300     0.100000000     0.252448310 1 1 1
     0.145810660     0.100000000     0.272034820 1 1 1
     0.164309030     0.100000000     0.291621330 1 1 1
     0.182807400     0.100000000     0.311207830 1 1 1
     0.201305770     0.100000000     0.330794340 1 1 1
     0.219804130     0.100000000     0.350380850 1 1 1
     0.238302500     0.100000000     0.369967360 1 1 1
     0.256800870     0.100000000     0.389553860 1 1 1
     0.275299240     0.100000000     0.409140370 1 1 1
     0.293797610     0.100000000     0.428726880 1 1 1
     0.312295970     0.100000000     0.448313380 1 1 1
     0.330794340     0.100000000     0.467899890 1 1 1
     0.349292710     0.100000000     0.487486400 1 1 1
     0.367791080     0.100000000     0.507072910 1 1 1
     0.386289450     0.100000000     0.526659410 1 1 1
     0.404787810     0.100000000     0.546245920 1 1 1
     0.423286180     0.100000000     0.565832430 1 1 1
     0.441784550     0.100000000     0.585418930 1 1 1
     0.460282920     0.100000000     0.605005440 1 1 1
     0.478781280     0.100000000     0.624591950 1 1 1
     0.497279650     0.100000000     0.644178450 1 1 1
     0.515778020     0.100000000     0.663764960 1 1 1
     0.534276390     0.100000000     0.683351470 1 1 1
     0.552774760     0.100000000     0.702937980 1 1 1
     0.571273120     0.100000000     0.722524480 1 1 1
     0.589771490     0.100000000     0.742110990 1 1 1
     0.608269860     0.100000000     0.761697500 1 1 1
     0.626768230     0.100000000     0.781284000 1 1 1
     0.645266590     0.100000000     0.800870510 1 1 1
     0.663764960     0.100000000     0.820457020 1 1 1
     0.682263330     0.100000000     0.840043530 1 1 1
     0.700761700     0.100000000     0.859630030 1 1 1
     0.719260070     0.100000000     0.879216540 1 1 1
     0.737758430     0.100000000     0.898803050 1 1 1
     0.756256800     0.100000000     0.918389550 1 1 1
     0.774755170     0.100000000     0.937976060 1 1 1
     0.793253540     0.100000000     0.957562570 1 1 1
     0.811751900     0.100000000     0.977149080 1 1 1
     0.830250270     0.100000000     0.996735580 1 1 1
     0.017410230     0.100000000     0.077257890 1 1 1
     0.035908600     0.100000000     0.096844400 1 1 1
     0.054406960     0.100000000     0.116430900 1 1 1
     0.072905330     0.100000000     0.136017410 1 1 1
     0.091403700     0.100000000     0.155603920 1 1 1
     0.109902070     0.100000000     0.175190420 1 1 1
     0.128400440     0.100000000     0.194776930 1 1 1
     0.146898800     0.100000000     0.214363440 1 1 1
     0.165397170     0.100000000     0.233949950 1 1 1
     0.183895540     0.100000000     0.253536450 1 1 1
     0.202393910     0.100000000     0.273122960 1 1 1
     0.220892270     0.100000000     0.292709470 1 1 1
     0.239390640     0.100000000     0.312295970 1 1 1
     0.257889010     0.100000000     0.331882480 1 1 1
     0.276387380     0.100000000     0.351468990 1 1 1
     0.294885750     0.100000000     0.371055500 1 1 1
     0.313384110     0.100000000     0.390642000 1 1 1
     0.331882480     0.100000000     0.410228510 1 1 1
     0.350380850     0.100000000     0.429815020 1 1 1
     0.368879220     0.100000000     0.449401520 1 1 1
     0.387377580     0.100000000     0.468988030 1 1 1
     0.405875950     0.100000000     0.488574540 1 1 1
     0.424374320     0.100000000     0.508161040 1 1 1
     0.442872690     0.100000000     0.527747550 1 1 1
     0.461371060     0.100000000     0.547334060 1 1 1
     0.479869420     0.100000000     0.566920570 1 1 1
     0.498367790     0.100000000     0.586507070 1 1 1
     0.516866160     0.100000000     0.606093580 1 1 1
     0.535364530     0.100000000     0.625680090 1 1 1
     0.553862890     0.100000000     0.645266590 1 1 1
     0.572361260     0.100000000     0.664853100 1 1 1
     0.590859630     0.100000000     0.684439610 1 1 1
     0.609358000     0.100000000     0.704026120 1 1 1
     0.627856370     0.100000000     0.723612620 1 1 1
     0.646354730     0.100000000     0.743199130 1 1 1
     0.664853100     0.100000000     0.762785640 1 1 1
     0.683351470     0.100000000     0.782372140 1 1 1
     0.701849840     0.100000000     0.801958650 1 1 1
     0.720348200     0.100000000     0.821545160 1 1 1
     0.738846570     0.100000000     0.841131660 1 1 1
     0.757344940     0.100000000     0.860718170 1 1 1
     0.775843310     0.100000000     0.880304680 1 1 1
     0.794341680     0.100000000     0.899891190 1 1 1
     0.812840040     0.100000000     0.919477690 1 1 1
     0.831338410     0.100000000     0.939064200 1 1 1
     0.849836780     0.100000000     0.958650710 1 1 1
     0.868335150     0.100000000     0.978237210 1 1 1
     0.886833510     0.100000000     0.997823720 1 1 1
     0.000000000     0.100000000     0.000000000 1 1 1
     0.018498370     0.100000000     0.019586510 1 1 1
     0.036996740     0.100000000     0.039173010 1 1 1
     0.055495100     0.100000000     0.058759520 1 1 1
     0.073993470     0.100000000     0.078346030 1 1 1
     0.092491840     0.100000000     0.097932540 1 1 1
     0.110990210     0.100000000     0.117519040 1 1 1
     0.129488570     0.100000000     0.137105550 1 1 1
     0.147986940     0.100000000     0.156692060 1 1 1
     0.166485310     0.100000000     0.176278560 1 1 1
     0.184983680     0.100000000     0.195865070 1 1 1
     0.203482050     0.100000000     0.215451580 1 1 1
     0.221980410     0.100000000     0.235038080 1 1 1
     0.240478780     0.100000000     0.254624590 1 1 1
     0.258977150     0.100000000     0.274211100 1 1 1
     0.277475520     0.100000000     0.293797610 1 1 1
     0.295973880     0.100000000     0.313384110 1 1 1
     0.314472250     0.100000000     0.332970620 1 1 1
     0.332970620     0.100000000     0.352557130 1 1 1
     0.351468990     0.100000000     0.372143630 1 1 1
     0.369967360     0.100000000     0.391730140 1 1 1
     0.388465720     0.100000000     0.411316650 1 1 1
     0.406964090     0.100000000     0.430903160 1 1 1
     0.425462460     0.100000000     0.450489660 1 1 1
     0.443960830     0.100000000     0.470076170 1 1 1
     0.462459190     0.100000000     0.489662680 1 1 1
     0.480957560     0.100000000     0.509249180 1 1 1
     0.499455930     0.100000000     0.528835690 1 1 1
     0.517954300     0.100000000     0.548422200 1 1 1
     0.536452670     0.100000000     0.568008710 1 1 1
     0.554951030     0.100000000     0.587595210 1 1 1
     0.573449400     0.100000000     0.607181720 1 1 1
     0.591947770     0.100000000     0.626768230 1 1 1
     0.610446140     0.100000000     0.646354730 1 1 1
     0.628944500     0.100000000     0.665941240 1 1 1
     0.647442870     0.100000000     0.685527750 1 1 1
     0.665941240     0.100000000     0.705114250 1 1 1
     0.684439610     0.100000000     0.724700760 1 1 1
     0.702937980     0.100000000     0.744287270 1 1 1
     0.721436340     0.100000000     0.763873780 1 1 1
     0.739934710     0.100000000     0.783460280 1 1 1
     0.758433080     0.100000000     0.803046790 1 1 1
     0.776931450     0.100000000     0.822633300 1 1 1
     0.795429820     0.100000000     0.842219800 1 1 1
     0.813928180     0.100000000     0.861806310 1 1 1
     0.832426550     0.100000000     0.881392820 1 1 1
     0.850924920     0.100000000     0.900979330 1 1 1
     0.869423290     0.100000000     0.920565830 1 1 1
     0.887921650     0.100000000     0.940152340 1 1 1
     0.906420020     0.100000000     0.959738850 1 1 1
     0.924918390     0.100000000     0.979325350 1 1 1
     0.943416760     0.100000000     0.998911860 1 1 1
     0.056583240     0.100000000     0.001088140 1 1 1
     0.075081610     0.100000000     0.020674650 1 1 1
     0.093579980     0.100000000     0.040261150 1 1 1
     0.112078350     0.100000000     0.059847660 1 1 1
     0.130576710     0.100000000     0.079434170 1 1 1
     0.149075080     0.100000000     0.099020670 1 1 1
     0.167573450     0.100000000     0.118607180 1 1 1
     0.186071820     0.100000000     0.138193690 1 1 1
     0.204570180     0.100000000     0.157780200 1 1 1
     0.223068550     0.100000000     0.177366700 1 1 1
     0.241566920     0.100000000     0.196953210 1 1 1
     0.260065290     0.100000000     0.216539720 1 1 1
     0.278563660     0.100000000     0.236126220 1 1 1
     0.297062020     0.100000000     0.255712730 1 1 1
     0.315560390     0.100000000     0.275299240 1 1 1
     0.334058760     0.100000000     0.294885750 1 1 1
     0.352557130     0.100000000     0.314472250 1 1 1
     0.371055500     0.100000000     0.334058760 1 1 1
     0.389553860     0.100000000     0.353645270 1 1 1
     0.408052230     0.100000000     0.373231770 1 1 1
     0.426550600     0.100000000     0.392818280 1 1 1
     0.445048970     0.100000000     0.412404790 1 1 1
     0.463547330     0.100000000     0.431991290 1 1 1
     0.482045700     0.100000000     0.451577800 1 1 1
     0.500544070     0.100000000     0.471164310 1 1 1
     0.519042440     0.100000000     0.490750820 1 1 1
     0.537540810     0.100000000     0.510337320 1 1 1
     0.556039170     0.100000000     0.529923830 1 1 1
     0.574537540     0.100000000     0.549510340 1 1 1
     0.593035910     0.100000000     0.569096840 1 1 1
     0.611534280     0.100000000     0.588683350 1 1 1
     0.630032640     0.100000000     0.608269860 1 1 1
     0.648531010     0.100000000     0.627856370 1 1 1
     0.667029380     0.100000000     0.647442870 1 1 1
     0.685527750     0.100000000     0.667029380 1 1 1
     0.704026120     0.100000000     0.686615890 1 1 1
     0.722524480     0.100000000     0.706202390 1 1 1
     0.741022850     0.100000000     0.725788900 1 1 1
     0.759521220     0.100000000     0.745375410 1 1 1
     0.778019590     0.100000000     0.764961920 1 1 1
     0.796517950     0.100000000     0.784548420 1 1 1
     0.815016320     0.100000000     0.804134930 1 1 1
     0.833514690     0.100000000     0.823721440 1 1 1
     0.852013060     0.100000000     0.843307940 1 1 1
     0.870511430     0.100000000     0.862894450 1 1 1
     0.889009790     0.100000000     0.882480960 1 1 1
     0.907508160     0.100000000     0.902067460 1 1 1
     0.926006530     0.100000000     0.921653970 1 1 1
     0.944504900     0.100000000     0.941240480 1 1 1
     0.963003260     0.100000000     0.960826990 1 1 1
     0.981501630     0.100000000     0.980413490 1 1 1
     0.113166490     0.100000000     0.002176280 1 1 1
     0.131664850     0.100000000     0.021762790 1 1 1
     0.150163220     0.100000000     0.041349290 1 1 1
     0.168661590     0.100000000     0.060935800 1 1 1
     0.187159960     0.100000000     0.080522310 1 1 1
     0.205658320     0.100000000     0.100108810 1 1 1
     0.224156690     0.100000000     0.119695320 1 1 1
     0.242655060     0.100000000     0.139281830 1 1 1
     0.261153430     0.100000000     0.158868340 1 1 1
     0.279651800     0.100000000     0.178454840 1 1 1
     0.298150160     0.100000000     0.198041350 1 1 1
     0.316648530     0.100000000     0.217627860 1 1 1
     0.335146900     0.100000000     0.237214360 1 1 1
     0.353645270     0.100000000     0.256800870 1 1 1
     0.372143630     0.100000000     0.276387380 1 1 1
     0.390642000     0.100000000     0.295973880 1 1 1
     0.409140370     0.100000000     0.315560390 1 1 1
     0.427638740     0.100000000     0.335146900 1 1 1
     0.446137110     0.100000000     0.354733410 1 1 1
     0.464635470     0.100000000     0.374319910 1 1 1
     0.483133840     0.100000000     0.393906420 1 1 1
     0.501632210     0.100000000     0.413492930 1 1 1
     0.520130580     0.100000000     0.433079430 1 1 1
     0.538628940     0.100000000     0.452665940 1 1 1
     0.557127310     0.100000000     0.472252450 1 1 1
     0.575625680     0.100000000     0.491838960 1 1 1
     0.594124050     0.100000000     0.511425460 1 1 1
     0.612622420     0.100000000     0.531011970 1 1 1