ATOMIC_SPECIES
C 6.000 ./C_ONCV_PBE-1.0.upf

NUMERICAL_ORBITAL
./C_gga_8au_100Ry_2s2p1d.orb

LATTICE_CONSTANT
1.889716

LATTICE_VECTORS
       105.7584984757       59.6397046004       0.0000000000
       -14.7360861959       26.1313559470       0.0000000000
       52.8792492379       29.8198523002       105.1490169878

ATOMIC_POSITIONS
Direct

C
0.0
9748
     0.000410340     0.100000000     0.964710710 1 1 1
     0.011899880     0.100000000     0.976610590 1 1 1
     0.023389410     0.100000000     0.988510460 1 1 1
     0.000820680     0.100000000     0.929421420 1 1 1
     0.012310220     0.100000000     0.941321300 1 1 1
     0.023799750     0.100000000     0.953221170 1 1 1
     0.035289290     0.100000000     0.965121050 1 1 1
     0.046778830     0.100000000     0.977020930 1 1 1
     0.058268360     0.100000000     0.988920800 1 1 1
     0.001231020     0.100000000     0.894132130 1 1 1
     0.012720560     0.100000000     0.906032010 1 1 1
     0.024210090     0.100000000     0.917931880 1 1 1
     0.035699630     0.100000000     0.929831760 1 1 1
     0.047189170     0.100000000     0.941731640 1 1 1
     0.058678700     0.100000000     0.953631510 1 1 1
     0.070168240     0.100000000     0.965531390 1 1 1
     0.081657780     0.100000000     0.977431270 1 1 1
     0.093147310     0.100000000     0.989331140 1 1 1
     0.001641360     0.100000000     0.858842840 1 1 1
     0.013130900     0.100000000     0.870742720 1 1 1
     0.024620430     0.100000000     0.882642590 1 1 1
     0.036109970     0.100000000     0.894542470 1 1 1
     0.047599510     0.100000000     0.906442350 1 1 1
     0.059089040     0.100000000     0.918342220 1 1 1
     0.070578580     0.100000000     0.930242100 1 1 1
     0.082068120     0.100000000     0.942141980 1 1 1
     0.093557650     0.100000000     0.954041850 1 1 1
     0.105047190     0.100000000     0.965941730 1 1 1
     0.116536730     0.100000000     0.977841610 1 1 1
     0.128026260     0.100000000     0.989741490 1 1 1
     0.002051700     0.100000000     0.823553550 1 1 1
     0.013541240     0.100000000     0.835453430 1 1 1
     0.025030780     0.100000000     0.847353300 1 1 1
     0.036520310     0.100000000     0.859253180 1 1 1
     0.048009850     0.100000000     0.871153060 1 1 1
     0.059499380     0.100000000     0.883052930 1 1 1
     0.070988920     0.100000000     0.894952810 1 1 1
     0.082478460     0.100000000     0.906852690 1 1 1
     0.093967990     0.100000000     0.918752560 1 1 1
     0.105457530     0.100000000     0.930652440 1 1 1
     0.116947070     0.100000000     0.942552320 1 1 1
     0.128436600     0.100000000     0.954452200 1 1 1
     0.139926140     0.100000000     0.966352070 1 1 1
     0.151415680     0.100000000     0.978251950 1 1 1
     0.162905210     0.100000000     0.990151830 1 1 1
     0.002462040     0.100000000     0.788264260 1 1 1
     0.013951580     0.100000000     0.800164140 1 1 1
     0.025441120     0.100000000     0.812064010 1 1 1
     0.036930650     0.100000000     0.823963890 1 1 1
     0.048420190     0.100000000     0.835863770 1 1 1
     0.059909730     0.100000000     0.847763640 1 1 1
     0.071399260     0.100000000     0.859663520 1 1 1
     0.082888800     0.100000000     0.871563400 1 1 1
     0.094378330     0.100000000     0.883463270 1 1 1
     0.105867870     0.100000000     0.895363150 1 1 1
     0.117357410     0.100000000     0.907263030 1 1 1
     0.128846940     0.100000000     0.919162910 1 1 1
     0.140336480     0.100000000     0.931062780 1 1 1
     0.151826020     0.100000000     0.942962660 1 1 1
     0.163315550     0.100000000     0.954862540 1 1 1
     0.174805090     0.100000000     0.966762410 1 1 1
     0.186294620     0.100000000     0.978662290 1 1 1
     0.197784160     0.100000000     0.990562170 1 1 1
     0.002872380     0.100000000     0.752974970 1 1 1
     0.014361920     0.100000000     0.764874850 1 1 1
     0.025851460     0.100000000     0.776774720 1 1 1
     0.037340990     0.100000000     0.788674600 1 1 1
     0.048830530     0.100000000     0.800574480 1 1 1
     0.060320070     0.100000000     0.812474350 1 1 1
     0.071809600     0.100000000     0.824374230 1 1 1
     0.083299140     0.100000000     0.836274110 1 1 1
     0.094788670     0.100000000     0.848173980 1 1 1
     0.106278210     0.100000000     0.860073860 1 1 1
     0.117767750     0.100000000     0.871973740 1 1 1
     0.129257280     0.100000000     0.883873620 1 1 1
     0.140746820     0.100000000     0.895773490 1 1 1
     0.152236360     0.100000000     0.907673370 1 1 1
     0.163725890     0.100000000     0.919573250 1 1 1
     0.175215430     0.100000000     0.931473120 1 1 1
     0.186704970     0.100000000     0.943373000 1 1 1
     0.198194500     0.100000000     0.955272880 1 1 1
     0.209684040     0.100000000     0.967172750 1 1 1
     0.221173570     0.100000000     0.979072630 1 1 1
     0.232663110     0.100000000     0.990972510 1 1 1
     0.003282720     0.100000000     0.717685680 1 1 1
     0.014772260     0.100000000     0.729585560 1 1 1
     0.026261800     0.100000000     0.741485430 1 1 1
     0.037751330     0.100000000     0.753385310 1 1 1
     0.049240870     0.100000000     0.765285190 1 1 1
     0.060730410     0.100000000     0.777185060 1 1 1
     0.072219940     0.100000000     0.789084940 1 1 1
     0.083709480     0.100000000     0.800984820 1 1 1
     0.095199020     0.100000000     0.812884690 1 1 1
     0.106688550     0.100000000     0.824784570 1 1 1
     0.118178090     0.100000000     0.836684450 1 1 1
     0.129667620     0.100000000     0.848584320 1 1 1
     0.141157160     0.100000000     0.860484200 1 1 1
     0.152646700     0.100000000     0.872384080 1 1 1
     0.164136230     0.100000000     0.884283960 1 1 1
     0.175625770     0.100000000     0.896183830 1 1 1
     0.187115310     0.100000000     0.908083710 1 1 1
     0.198604840     0.100000000     0.919983590 1 1 1
     0.210094380     0.100000000     0.931883460 1 1 1
     0.221583910     0.100000000     0.943783340 1 1 1
     0.233073450     0.100000000     0.955683220 1 1 1
     0.244562990     0.100000000     0.967583090 1 1 1
     0.256052520     0.100000000     0.979482970 1 1 1
     0.267542060     0.100000000     0.991382850 1 1 1
     0.003693070     0.100000000     0.682396390 1 1 1
     0.015182600     0.100000000     0.694296270 1 1 1
     0.026672140     0.100000000     0.706196140 1 1 1
     0.038161670     0.100000000     0.718096020 1 1 1
     0.049651210     0.100000000     0.729995900 1 1 1
     0.061140750     0.100000000     0.741895770 1 1 1
     0.072630280     0.100000000     0.753795650 1 1 1
     0.084119820     0.100000000     0.765695530 1 1 1
     0.095609360     0.100000000     0.777595400 1 1 1
     0.107098890     0.100000000     0.789495280 1 1 1
     0.118588430     0.100000000     0.801395160 1 1 1
     0.130077960     0.100000000     0.813295030 1 1 1
     0.141567500     0.100000000     0.825194910 1 1 1
     0.153057040     0.100000000     0.837094790 1 1 1
     0.164546570     0.100000000     0.848994670 1 1 1
     0.176036110     0.100000000     0.860894540 1 1 1
     0.187525650     0.100000000     0.872794420 1 1 1
     0.199015180     0.100000000     0.884694300 1 1 1
     0.210504720     0.100000000     0.896594170 1 1 1
     0.221994260     0.100000000     0.908494050 1 1 1
     0.233483790     0.100000000     0.920393930 1 1 1
     0.244973330     0.100000000     0.932293800 1 1 1
     0.256462860     0.100000000     0.944193680 1 1 1
     0.267952400     0.100000000     0.956093560 1 1 1
     0.279441940     0.100000000     0.967993430 1 1 1
     0.290931470     0.100000000     0.979893310 1 1 1
     0.302421010     0.100000000     0.991793190 1 1 1
     0.004103410     0.100000000     0.647107100 1 1 1
     0.015592940     0.100000000     0.659006980 1 1 1
     0.027082480     0.100000000     0.670906850 1 1 1
     0.038572010     0.100000000     0.682806730 1 1 1
     0.050061550     0.100000000     0.694706610 1 1 1
     0.061551090     0.100000000     0.706606480 1 1 1
     0.073040620     0.100000000     0.718506360 1 1 1
     0.084530160     0.100000000     0.730406240 1 1 1
     0.096019700     0.100000000     0.742306110 1 1 1
     0.107509230     0.100000000     0.754205990 1 1 1
     0.118998770     0.100000000     0.766105870 1 1 1
     0.130488310     0.100000000     0.778005740 1 1 1
     0.141977840     0.100000000     0.789905620 1 1 1
     0.153467380     0.100000000     0.801805500 1 1 1
     0.164956910     0.100000000     0.813705380 1 1 1
     0.176446450     0.100000000     0.825605250 1 1 1
     0.187935990     0.100000000     0.837505130 1 1 1
     0.199425520     0.100000000     0.849405010 1 1 1
     0.210915060     0.100000000     0.861304880 1 1 1
     0.222404600     0.100000000     0.873204760 1 1 1
     0.233894130     0.100000000     0.885104640 1 1 1
     0.245383670     0.100000000     0.897004510 1 1 1
     0.256873200     0.100000000     0.908904390 1 1 1
     0.268362740     0.100000000     0.920804270 1 1 1
     0.279852280     0.100000000     0.932704140 1 1 1
     0.291341810     0.100000000     0.944604020 1 1 1
     0.302831350     0.100000000     0.956503900 1 1 1
     0.314320890     0.100000000     0.968403780 1 1 1
     0.325810420     0.100000000     0.980303650 1 1 1
     0.337299960     0.100000000     0.992203530 1 1 1
     0.004513750     0.100000000     0.611817810 1 1 1
     0.016003280     0.100000000     0.623717690 1 1 1
     0.027492820     0.100000000     0.635617560 1 1 1
     0.038982360     0.100000000     0.647517440 1 1 1
     0.050471890     0.100000000     0.659417320 1 1 1
     0.061961430     0.100000000     0.671317190 1 1 1
     0.073450960     0.100000000     0.683217070 1 1 1
     0.084940500     0.100000000     0.695116950 1 1 1
     0.096430040     0.100000000     0.707016820 1 1 1
     0.107919570     0.100000000     0.718916700 1 1 1
     0.119409110     0.100000000     0.730816580 1 1 1
     0.130898650     0.100000000     0.742716450 1 1 1
     0.142388180     0.100000000     0.754616330 1 1 1
     0.153877720     0.100000000     0.766516210 1 1 1
     0.165367250     0.100000000     0.778416090 1 1 1
     0.176856790     0.100000000     0.790315960 1 1 1
     0.188346330     0.100000000     0.802215840 1 1 1
     0.199835860     0.100000000     0.814115720 1 1 1
     0.211325400     0.100000000     0.826015590 1 1 1
     0.222814940     0.100000000     0.837915470 1 1 1
     0.234304470     0.100000000     0.849815350 1 1 1
     0.245794010     0.100000000     0.861715220 1 1 1
     0.257283550     0.100000000     0.873615100 1 1 1
     0.268773080     0.100000000     0.885514980 1 1 1
     0.280262620     0.100000000     0.897414850 1 1 1
     0.291752150     0.100000000     0.909314730 1 1 1
     0.303241690     0.100000000     0.921214610 1 1 1
     0.314731230     0.100000000     0.933114490 1 1 1
     0.326220760     0.100000000     0.945014360 1 1 1
     0.337710300     0.100000000     0.956914240 1 1 1
     0.349199840     0.100000000     0.968814120 1 1 1
     0.360689370     0.100000000     0.980713990 1 1 1
     0.372178910     0.100000000     0.992613870 1 1 1
     0.004924090     0.100000000     0.576528520 1 1 1
     0.016413620     0.100000000     0.588428400 1 1 1
     0.027903160     0.100000000     0.600328270 1 1 1
     0.039392700     0.100000000     0.612228150 1 1 1
     0.050882230     0.100000000     0.624128030 1 1 1
     0.062371770     0.100000000     0.636027900 1 1 1
     0.073861300     0.100000000     0.647927780 1 1 1
     0.085350840     0.100000000     0.659827660 1 1 1
     0.096840380     0.100000000     0.671727530 1 1 1
     0.108329910     0.100000000     0.683627410 1 1 1
     0.119819450     0.100000000     0.695527290 1 1 1
     0.131308990     0.100000000     0.707427160 1 1 1
     0.142798520     0.100000000     0.719327040 1 1 1
     0.154288060     0.100000000     0.731226920 1 1 1
     0.165777600     0.100000000     0.743126800 1 1 1
     0.177267130     0.100000000     0.755026670 1 1 1
     0.188756670     0.100000000     0.766926550 1 1 1
     0.200246200     0.100000000     0.778826430 1 1 1
     0.211735740     0.100000000     0.790726300 1 1 1
     0.223225280     0.100000000     0.802626180 1 1 1
     0.234714810     0.100000000     0.814526060 1 1 1
     0.246204350     0.100000000     0.826425930 1 1 1
     0.257693890     0.100000000     0.838325810 1 1 1
     0.269183420     0.100000000     0.850225690 1 1 1
     0.280672960     0.100000000     0.862125560 1 1 1
     0.292162490     0.100000000     0.874025440 1 1 1
     0.303652030     0.100000000     0.885925320 1 1 1
     0.315141570     0.100000000     0.897825190 1 1 1
     0.326631100     0.100000000     0.909725070 1 1 1
     0.338120640     0.100000000     0.921624950 1 1 1
     0.349610180     0.100000000     0.933524830 1 1 1
     0.361099710     0.100000000     0.945424700 1 1 1
     0.372589250     0.100000000     0.957324580 1 1 1
     0.384078790     0.100000000     0.969224460 1 1 1
     0.395568320     0.100000000     0.981124330 1 1 1
     0.407057860     0.100000000     0.993024210 1 1 1
     0.005334430     0.100000000     0.541239230 1 1 1
     0.016823960     0.100000000     0.553139110 1 1 1
     0.028313500     0.100000000     0.565038980 1 1 1
     0.039803040     0.100000000     0.576938860 1 1 1
     0.051292570     0.100000000     0.588838740 1 1 1
     0.062782110     0.100000000     0.600738610 1 1 1
     0.074271650     0.100000000     0.612638490 1 1 1
     0.085761180     0.100000000     0.624538370 1 1 1
     0.097250720     0.100000000     0.636438240 1 1 1
     0.108740250     0.100000000     0.648338120 1 1 1
     0.120229790     0.100000000     0.660238000 1 1 1
     0.131719330     0.100000000     0.672137870 1 1 1
     0.143208860     0.100000000     0.684037750 1 1 1
     0.154698400     0.100000000     0.695937630 1 1 1
     0.166187940     0.100000000     0.707837510 1 1 1
     0.177677470     0.100000000     0.719737380 1 1 1
     0.189167010     0.100000000     0.731637260 1 1 1
     0.200656540     0.100000000     0.743537140 1 1 1
     0.212146080     0.100000000     0.755437010 1 1 1
     0.223635620     0.100000000     0.767336890 1 1 1
     0.235125150     0.100000000     0.779236770 1 1 1
     0.246614690     0.100000000     0.791136640 1 1 1
     0.258104230     0.100000000     0.803036520 1 1 1
     0.269593760     0.100000000     0.814936400 1 1 1
     0.281083300     0.100000000     0.826836270 1 1 1
     0.292572840     0.100000000     0.838736150 1 1 1
     0.304062370     0.100000000     0.850636030 1 1 1
     0.315551910     0.100000000     0.862535900 1 1 1
     0.327041440     0.100000000     0.874435780 1 1 1
     0.338530980     0.100000000     0.886335660 1 1 1
     0.350020520     0.100000000     0.898235540 1 1 1
     0.361510050     0.100000000     0.910135410 1 1 1
     0.372999590     0.100000000     0.922035290 1 1 1
     0.384489130     0.100000000     0.933935170 1 1 1
     0.395978660     0.100000000     0.945835040 1 1 1
     0.407468200     0.100000000     0.957734920 1 1 1
     0.418957730     0.100000000     0.969634800 1 1 1
     0.430447270     0.100000000     0.981534670 1 1 1
     0.441936810     0.100000000     0.993434550 1 1 1
     0.005744770     0.100000000     0.505949940 1 1 1
     0.017234300     0.100000000     0.517849820 1 1 1
     0.028723840     0.100000000     0.529749690 1 1 1
     0.040213380     0.100000000     0.541649570 1 1 1
     0.051702910     0.100000000     0.553549450 1 1 1
     0.063192450     0.100000000     0.565449320 1 1 1
     0.074681990     0.100000000     0.577349200 1 1 1
     0.086171520     0.100000000     0.589249080 1 1 1
     0.097661060     0.100000000     0.601148950 1 1 1
     0.109150590     0.100000000     0.613048830 1 1 1
     0.120640130     0.100000000     0.624948710 1 1 1
     0.132129670     0.100000000     0.636848580 1 1 1
     0.143619200     0.100000000     0.648748460 1 1 1
     0.155108740     0.100000000     0.660648340 1 1 1
     0.166598280     0.100000000     0.672548220 1 1 1
     0.178087810     0.100000000     0.684448090 1 1 1
     0.189577350     0.100000000     0.696347970 1 1 1
     0.201066890     0.100000000     0.708247850 1 1 1
     0.212556420     0.100000000     0.720147720 1 1 1
     0.224045960     0.100000000     0.732047600 1 1 1
     0.235535490     0.100000000     0.743947480 1 1 1
     0.247025030     0.100000000     0.755847350 1 1 1
     0.258514570     0.100000000     0.767747230 1 1 1
     0.270004100     0.100000000     0.779647110 1 1 1
     0.281493640     0.100000000     0.791546980 1 1 1
     0.292983180     0.100000000     0.803446860 1 1 1
     0.304472710     0.100000000     0.815346740 1 1 1
     0.315962250     0.100000000     0.827246610 1 1 1
     0.327451780     0.100000000     0.839146490 1 1 1
     0.338941320     0.100000000     0.851046370 1 1 1
     0.350430860     0.100000000     0.862946250 1 1 1
     0.361920390     0.100000000     0.874846120 1 1 1
     0.373409930     0.100000000     0.886746000 1 1 1
     0.384899470     0.100000000     0.898645880 1 1 1
     0.396389000     0.100000000     0.910545750 1 1 1
     0.407878540     0.100000000     0.922445630 1 1 1
     0.419368080     0.100000000     0.934345510 1 1 1
     0.430857610     0.100000000     0.946245380 1 1 1
     0.442347150     0.100000000     0.958145260 1 1 1
     0.453836680     0.100000000     0.970045140 1 1 1
     0.465326220     0.100000000     0.981945010 1 1 1
     0.476815760     0.100000000     0.993844890 1 1 1
     0.006155110     0.100000000     0.470660650 1 1 1
     0.017644650     0.100000000     0.482560530 1 1 1
     0.029134180     0.100000000     0.494460400 1 1 1
     0.040623720     0.100000000     0.506360280 1 1 1
     0.052113250     0.100000000     0.518260160 1 1 1
     0.063602790     0.100000000     0.530160030 1 1 1
     0.075092330     0.100000000     0.542059910 1 1 1
     0.086581860     0.100000000     0.553959790 1 1 1
     0.098071400     0.100000000     0.565859660 1 1 1
     0.109560940     0.100000000     0.577759540 1 1 1
     0.121050470     0.100000000     0.589659420 1 1 1
     0.132540010     0.100000000     0.601559290 1 1 1
     0.144029540     0.100000000     0.613459170 1 1 1
     0.155519080     0.100000000     0.625359050 1 1 1
     0.167008620     0.100000000     0.637258920 1 1 1
     0.178498150     0.100000000     0.649158800 1 1 1
     0.189987690     0.100000000     0.661058680 1 1 1
     0.201477230     0.100000000     0.672958560 1 1 1
     0.212966760     0.100000000     0.684858430 1 1 1
     0.224456300     0.100000000     0.696758310 1 1 1
     0.235945840     0.100000000     0.708658190 1 1 1
     0.247435370     0.100000000     0.720558060 1 1 1
     0.258924910     0.100000000     0.732457940 1 1 1
     0.270414440     0.100000000     0.744357820 1 1 1
     0.281903980     0.100000000     0.756257690 1 1 1
     0.293393520     0.100000000     0.768157570 1 1 1
     0.304883050     0.100000000     0.780057450 1 1 1
     0.316372590     0.100000000     0.791957320 1 1 1
     0.327862130     0.100000000     0.803857200 1 1 1
     0.339351660     0.100000000     0.815757080 1 1 1
     0.350841200     0.100000000     0.827656960 1 1 1
     0.362330730     0.100000000     0.839556830 1 1 1
     0.373820270     0.100000000     0.851456710 1 1 1
     0.385309810     0.100000000     0.863356590 1 1 1
     0.396799340     0.100000000     0.875256460 1 1 1
     0.408288880     0.100000000     0.887156340 1 1 1
     0.419778420     0.100000000     0.899056220 1 1 1
     0.431267950     0.100000000     0.910956090 1 1 1
     0.442757490     0.100000000     0.922855970 1 1 1
     0.454247030     0.100000000     0.934755850 1 1 1
     0.465736560     0.100000000     0.946655720 1 1 1
     0.477226100     0.100000000     0.958555600 1 1 1
     0.488715630     0.100000000     0.970455480 1 1 1
     0.500205170     0.100000000     0.982355350 1 1 1
     0.511694710     0.100000000     0.994255230 1 1 1
     0.006565450     0.100000000     0.435371360 1 1 1
     0.018054990     0.100000000     0.447271240 1 1 1
     0.029544520     0.100000000     0.459171110 1 1 1
     0.041034060     0.100000000     0.471070990 1 1 1
     0.052523590     0.100000000     0.482970870 1 1 1
     0.064013130     0.100000000     0.494870740 1 1 1
     0.075502670     0.100000000     0.506770620 1 1 1
     0.086992200     0.100000000     0.518670500 1 1 1
     0.098481740     0.100000000     0.530570370 1 1 1
     0.109971280     0.100000000     0.542470250 1 1 1
     0.121460810     0.100000000     0.554370130 1 1 1
     0.132950350     0.100000000     0.566270000 1 1 1
     0.144439890     0.100000000     0.578169880 1 1 1
     0.155929420     0.100000000     0.590069760 1 1 1
     0.167418960     0.100000000     0.601969630 1 1 1
     0.178908490     0.100000000     0.613869510 1 1 1
     0.190398030     0.100000000     0.625769390 1 1 1
     0.201887570     0.100000000     0.637669270 1 1 1
     0.213377100     0.100000000     0.649569140 1 1 1
     0.224866640     0.100000000     0.661469020 1 1 1
     0.236356180     0.100000000     0.673368900 1 1 1
     0.247845710     0.100000000     0.685268770 1 1 1
     0.259335250     0.100000000     0.697168650 1 1 1
     0.270824780     0.100000000     0.709068530 1 1 1
     0.282314320     0.100000000     0.720968400 1 1 1
     0.293803860     0.100000000     0.732868280 1 1 1
     0.305293390     0.100000000     0.744768160 1 1 1
     0.316782930     0.100000000     0.756668030 1 1 1
     0.328272470     0.100000000     0.768567910 1 1 1
     0.339762000     0.100000000     0.780467790 1 1 1
     0.351251540     0.100000000     0.792367670 1 1 1
     0.362741080     0.100000000     0.804267540 1 1 1
     0.374230610     0.100000000     0.816167420 1 1 1
     0.385720150     0.100000000     0.828067300 1 1 1
     0.397209680     0.100000000     0.839967170 1 1 1
     0.408699220     0.100000000     0.851867050 1 1 1
     0.420188760     0.100000000     0.863766930 1 1 1
     0.431678290     0.100000000     0.875666800 1 1 1
     0.443167830     0.100000000     0.887566680 1 1 1
     0.454657370     0.100000000     0.899466560 1 1 1
     0.466146900     0.100000000     0.911366430 1 1 1
     0.477636440     0.100000000     0.923266310 1 1 1
     0.489125970     0.100000000     0.935166190 1 1 1
     0.500615510     0.100000000     0.947066060 1 1 1
     0.512105050     0.100000000     0.958965940 1 1 1
     0.523594580     0.100000000     0.970865820 1 1 1
     0.535084120     0.100000000     0.982765700 1 1 1
     0.546573660     0.100000000     0.994665570 1 1 1
     0.006975790     0.100000000     0.400082070 1 1 1
     0.018465330     0.100000000     0.411981950 1 1 1
     0.029954860     0.100000000     0.423881820 1 1 1
     0.041444400     0.100000000     0.435781700 1 1 1
     0.052933940     0.100000000     0.447681580 1 1 1
     0.064423470     0.100000000     0.459581450 1 1 1
     0.075913010     0.100000000     0.471481330 1 1 1
     0.087402540     0.100000000     0.483381210 1 1 1
     0.098892080     0.100000000     0.495281080 1 1 1
     0.110381620     0.100000000     0.507180960 1 1 1
     0.121871150     0.100000000     0.519080840 1 1 1
     0.133360690     0.100000000     0.530980710 1 1 1
     0.144850230     0.100000000     0.542880590 1 1 1
     0.156339760     0.100000000     0.554780470 1 1 1
     0.167829300     0.100000000     0.566680340 1 1 1
     0.179318830     0.100000000     0.578580220 1 1 1
     0.190808370     0.100000000     0.590480100 1 1 1
     0.202297910     0.100000000     0.602379980 1 1 1
     0.213787440     0.100000000     0.614279850 1 1 1
     0.225276980     0.100000000     0.626179730 1 1 1
     0.236766520     0.100000000     0.638079610 1 1 1
     0.248256050     0.100000000     0.649979480 1 1 1
     0.259745590     0.100000000     0.661879360 1 1 1
     0.271235130     0.100000000     0.673779240 1 1 1
     0.282724660     0.100000000     0.685679110 1 1 1
     0.294214200     0.100000000     0.697578990 1 1 1
     0.305703730     0.100000000     0.709478870 1 1 1
     0.317193270     0.100000000     0.721378740 1 1 1
     0.328682810     0.100000000     0.733278620 1 1 1
     0.340172340     0.100000000     0.745178500 1 1 1
     0.351661880     0.100000000     0.757078380 1 1 1
     0.363151420     0.100000000     0.768978250 1 1 1
     0.374640950     0.100000000     0.780878130 1 1 1
     0.386130490     0.100000000     0.792778010 1 1 1
     0.397620020     0.100000000     0.804677880 1 1 1
     0.409109560     0.100000000     0.816577760 1 1 1
     0.420599100     0.100000000     0.828477640 1 1 1
     0.432088630     0.100000000     0.840377510 1 1 1
     0.443578170     0.100000000     0.852277390 1 1 1
     0.455067710     0.100000000     0.864177270 1 1 1
     0.466557240     0.100000000     0.876077140 1 1 1
     0.478046780     0.100000000     0.887977020 1 1 1
     0.489536320     0.100000000     0.899876900 1 1 1
     0.501025850     0.100000000     0.911776770 1 1 1
     0.512515390     0.100000000     0.923676650 1 1 1
     0.524004920     0.100000000     0.935576530 1 1 1
     0.535494460     0.100000000     0.947476410 1 1 1
     0.546984000     0.100000000     0.959376280 1 1 1
     0.558473530     0.100000000     0.971276160 1 1 1
     0.569963070     0.100000000     0.983176040 1 1 1
     0.581452610     0.100000000     0.995075910 1 1 1
     0.007386130     0.100000000     0.364792780 1 1 1
     0.018875670     0.100000000     0.376692650 1 1 1
     0.030365200     0.100000000     0.388592530 1 1 1
     0.041854740     0.100000000     0.400492410 1 1 1
     0.053344280     0.100000000     0.412392290 1 1 1
     0.064833810     0.100000000     0.424292160 1 1 1
     0.076323350     0.100000000     0.436192040 1 1 1
     0.087812880     0.100000000     0.448091920 1 1 1
     0.099302420     0.100000000     0.459991790 1 1 1
     0.110791960     0.100000000     0.471891670 1 1 1
     0.122281490     0.100000000     0.483791550 1 1 1
     0.133771030     0.100000000     0.495691420 1 1 1
     0.145260570     0.100000000     0.507591300 1 1 1
     0.156750100     0.100000000     0.519491180 1 1 1
     0.168239640     0.100000000     0.531391050 1 1 1
     0.179729180     0.100000000     0.543290930 1 1 1
     0.191218710     0.100000000     0.555190810 1 1 1
     0.202708250     0.100000000     0.567090690 1 1 1
     0.214197780     0.100000000     0.578990560 1 1 1
     0.225687320     0.100000000     0.590890440 1 1 1
     0.237176860     0.100000000     0.602790320 1 1 1
     0.248666390     0.100000000     0.614690190 1 1 1
     0.260155930     0.100000000     0.626590070 1 1 1
     0.271645470     0.100000000     0.638489950 1 1 1
     0.283135000     0.100000000     0.650389820 1 1 1
     0.294624540     0.100000000     0.662289700 1 1 1
     0.306114070     0.100000000     0.674189580 1 1 1
     0.317603610     0.100000000     0.686089450 1 1 1
     0.329093150     0.100000000     0.697989330 1 1 1
     0.340582680     0.100000000     0.709889210 1 1 1
     0.352072220     0.100000000     0.721789080 1 1 1
     0.363561760     0.100000000     0.733688960 1 1 1
     0.375051290     0.100000000     0.745588840 1 1 1
     0.386540830     0.100000000     0.757488720 1 1 1
     0.398030370     0.100000000     0.769388590 1 1 1
     0.409519900     0.100000000     0.781288470 1 1 1
     0.421009440     0.100000000     0.793188350 1 1 1
     0.432498970     0.100000000     0.805088220 1 1 1
     0.443988510     0.100000000     0.816988100 1 1 1
     0.455478050     0.100000000     0.828887980 1 1 1
     0.466967580     0.100000000     0.840787850 1 1 1
     0.478457120     0.100000000     0.852687730 1 1 1
     0.489946660     0.100000000     0.864587610 1 1 1
     0.501436190     0.100000000     0.876487480 1 1 1
     0.512925730     0.100000000     0.888387360 1 1 1
     0.524415260     0.100000000     0.900287240 1 1 1
     0.535904800     0.100000000     0.912187120 1 1 1
     0.547394340     0.100000000     0.924086990 1 1 1
     0.558883870     0.100000000     0.935986870 1 1 1
     0.570373410     0.100000000     0.947886750 1 1 1
     0.581862950     0.100000000     0.959786620 1 1 1
     0.593352480     0.100000000     0.971686500 1 1 1
     0.604842020     0.100000000     0.983586380 1 1 1
     0.616331560     0.100000000     0.995486250 1 1 1
     0.007796470     0.100000000     0.329503490 1 1 1
     0.019286010     0.100000000     0.341403360 1 1 1
     0.030775540     0.100000000     0.353303240 1 1 1
     0.042265080     0.100000000     0.365203120 1 1 1
     0.053754620     0.100000000     0.377103000 1 1 1
     0.065244150     0.100000000     0.389002870 1 1 1
     0.076733690     0.100000000     0.400902750 1 1 1
     0.088223230     0.100000000     0.412802630 1 1 1
     0.099712760     0.100000000     0.424702500 1 1 1
     0.111202300     0.100000000     0.436602380 1 1 1
     0.122691830     0.100000000     0.448502260 1 1 1
     0.134181370     0.100000000     0.460402130 1 1 1
     0.145670910     0.100000000     0.472302010 1 1 1
     0.157160440     0.100000000     0.484201890 1 1 1
     0.168649980     0.100000000     0.496101760 1 1 1
     0.180139520     0.100000000     0.508001640 1 1 1
     0.191629050     0.100000000     0.519901520 1 1 1
     0.203118590     0.100000000     0.531801400 1 1 1
     0.214608120     0.100000000     0.543701270 1 1 1
     0.226097660     0.100000000     0.555601150 1 1 1
     0.237587200     0.100000000     0.567501030 1 1 1
     0.249076730     0.100000000     0.579400900 1 1 1
     0.260566270     0.100000000     0.591300780 1 1 1
     0.272055810     0.100000000     0.603200660 1 1 1
     0.283545340     0.100000000     0.615100530 1 1 1