ATOMIC_SPECIES
C 6.000 ./C_ONCV_PBE-1.0.upf

NUMERICAL_ORBITAL
./C_gga_8au_100Ry_2s2p1d.orb

LATTICE_CONSTANT
1.889716

LATTICE_VECTORS
       72.5552480889       40.4697990640       0.0000000000
       -14.6137833677       26.1999491542       0.0000000000
       36.2776240445       20.2348995320       71.9482556852

ATOMIC_POSITIONS
Direct

C
0.0
4564
     0.000876420     0.100000000     0.948290970 1 1 1
     0.017528480     0.100000000     0.965819460 1 1 1
     0.034180540     0.100000000     0.983347940 1 1 1
     0.001752850     0.100000000     0.896581950 1 1 1
     0.018404910     0.100000000     0.914110430 1 1 1
     0.035056970     0.100000000     0.931638910 1 1 1
     0.051709030     0.100000000     0.949167400 1 1 1
     0.068361090     0.100000000     0.966695880 1 1 1
     0.085013150     0.100000000     0.984224360 1 1 1
     0.002629270     0.100000000     0.844872920 1 1 1
     0.019281330     0.100000000     0.862401400 1 1 1
     0.035933390     0.100000000     0.879929890 1 1 1
     0.052585450     0.100000000     0.897458370 1 1 1
     0.069237510     0.100000000     0.914986850 1 1 1
     0.085889570     0.100000000     0.932515340 1 1 1
     0.102541630     0.100000000     0.950043820 1 1 1
     0.119193690     0.100000000     0.967572300 1 1 1
     0.135845750     0.100000000     0.985100790 1 1 1
     0.003505700     0.100000000     0.793163890 1 1 1
     0.020157760     0.100000000     0.810692380 1 1 1
     0.036809820     0.100000000     0.828220860 1 1 1
     0.053461880     0.100000000     0.845749340 1 1 1
     0.070113940     0.100000000     0.863277830 1 1 1
     0.086765990     0.100000000     0.880806310 1 1 1
     0.103418050     0.100000000     0.898334790 1 1 1
     0.120070110     0.100000000     0.915863280 1 1 1
     0.136722170     0.100000000     0.933391760 1 1 1
     0.153374230     0.100000000     0.950920250 1 1 1
     0.170026290     0.100000000     0.968448730 1 1 1
     0.186678350     0.100000000     0.985977210 1 1 1
     0.004382120     0.100000000     0.741454860 1 1 1
     0.021034180     0.100000000     0.758983350 1 1 1
     0.037686240     0.100000000     0.776511830 1 1 1
     0.054338300     0.100000000     0.794040320 1 1 1
     0.070990360     0.100000000     0.811568800 1 1 1
     0.087642420     0.100000000     0.829097280 1 1 1
     0.104294480     0.100000000     0.846625770 1 1 1
     0.120946540     0.100000000     0.864154250 1 1 1
     0.137598600     0.100000000     0.881682730 1 1 1
     0.154250660     0.100000000     0.899211220 1 1 1
     0.170902720     0.100000000     0.916739700 1 1 1
     0.187554780     0.100000000     0.934268190 1 1 1
     0.204206840     0.100000000     0.951796670 1 1 1
     0.220858900     0.100000000     0.969325150 1 1 1
     0.237510960     0.100000000     0.986853640 1 1 1
     0.005258550     0.100000000     0.689745840 1 1 1
     0.021910600     0.100000000     0.707274320 1 1 1
     0.038562660     0.100000000     0.724802800 1 1 1
     0.055214720     0.100000000     0.742331290 1 1 1
     0.071866780     0.100000000     0.759859770 1 1 1
     0.088518840     0.100000000     0.777388260 1 1 1
     0.105170900     0.100000000     0.794916740 1 1 1
     0.121822960     0.100000000     0.812445220 1 1 1
     0.138475020     0.100000000     0.829973710 1 1 1
     0.155127080     0.100000000     0.847502190 1 1 1
     0.171779140     0.100000000     0.865030670 1 1 1
     0.188431200     0.100000000     0.882559160 1 1 1
     0.205083260     0.100000000     0.900087640 1 1 1
     0.221735320     0.100000000     0.917616130 1 1 1
     0.238387380     0.100000000     0.935144610 1 1 1
     0.255039440     0.100000000     0.952673090 1 1 1
     0.271691500     0.100000000     0.970201580 1 1 1
     0.288343560     0.100000000     0.987730060 1 1 1
     0.006134970     0.100000000     0.638036810 1 1 1
     0.022787030     0.100000000     0.655565290 1 1 1
     0.039439090     0.100000000     0.673093780 1 1 1
     0.056091150     0.100000000     0.690622260 1 1 1
     0.072743210     0.100000000     0.708150740 1 1 1
     0.089395270     0.100000000     0.725679230 1 1 1
     0.106047330     0.100000000     0.743207710 1 1 1
     0.122699390     0.100000000     0.760736200 1 1 1
     0.139351450     0.100000000     0.778264680 1 1 1
     0.156003510     0.100000000     0.795793160 1 1 1
     0.172655570     0.100000000     0.813321650 1 1 1
     0.189307620     0.100000000     0.830850130 1 1 1
     0.205959680     0.100000000     0.848378620 1 1 1
     0.222611740     0.100000000     0.865907100 1 1 1
     0.239263800     0.100000000     0.883435580 1 1 1
     0.255915860     0.100000000     0.900964070 1 1 1
     0.272567920     0.100000000     0.918492550 1 1 1
     0.289219980     0.100000000     0.936021030 1 1 1
     0.305872040     0.100000000     0.953549520 1 1 1
     0.322524100     0.100000000     0.971078000 1 1 1
     0.339176160     0.100000000     0.988606490 1 1 1
     0.007011390     0.100000000     0.586327780 1 1 1
     0.023663450     0.100000000     0.603856270 1 1 1
     0.040315510     0.100000000     0.621384750 1 1 1
     0.056967570     0.100000000     0.638913230 1 1 1
     0.073619630     0.100000000     0.656441720 1 1 1
     0.090271690     0.100000000     0.673970200 1 1 1
     0.106923750     0.100000000     0.691498690 1 1 1
     0.123575810     0.100000000     0.709027170 1 1 1
     0.140227870     0.100000000     0.726555650 1 1 1
     0.156879930     0.100000000     0.744084140 1 1 1
     0.173531990     0.100000000     0.761612620 1 1 1
     0.190184050     0.100000000     0.779141100 1 1 1
     0.206836110     0.100000000     0.796669590 1 1 1
     0.223488170     0.100000000     0.814198070 1 1 1
     0.240140230     0.100000000     0.831726560 1 1 1
     0.256792290     0.100000000     0.849255040 1 1 1
     0.273444350     0.100000000     0.866783520 1 1 1
     0.290096410     0.100000000     0.884312010 1 1 1
     0.306748470     0.100000000     0.901840490 1 1 1
     0.323400530     0.100000000     0.919368970 1 1 1
     0.340052590     0.100000000     0.936897460 1 1 1
     0.356704650     0.100000000     0.954425940 1 1 1
     0.373356700     0.100000000     0.971954430 1 1 1
     0.390008760     0.100000000     0.989482910 1 1 1
     0.007887820     0.100000000     0.534618760 1 1 1
     0.024539880     0.100000000     0.552147240 1 1 1
     0.041191940     0.100000000     0.569675720 1 1 1
     0.057844000     0.100000000     0.587204210 1 1 1
     0.074496060     0.100000000     0.604732690 1 1 1
     0.091148120     0.100000000     0.622261170 1 1 1
     0.107800180     0.100000000     0.639789660 1 1 1
     0.124452230     0.100000000     0.657318140 1 1 1
     0.141104290     0.100000000     0.674846630 1 1 1
     0.157756350     0.100000000     0.692375110 1 1 1
     0.174408410     0.100000000     0.709903590 1 1 1
     0.191060470     0.100000000     0.727432080 1 1 1
     0.207712530     0.100000000     0.744960560 1 1 1
     0.224364590     0.100000000     0.762489040 1 1 1
     0.241016650     0.100000000     0.780017530 1 1 1
     0.257668710     0.100000000     0.797546010 1 1 1
     0.274320770     0.100000000     0.815074500 1 1 1
     0.290972830     0.100000000     0.832602980 1 1 1
     0.307624890     0.100000000     0.850131460 1 1 1
     0.324276950     0.100000000     0.867659950 1 1 1
     0.340929010     0.100000000     0.885188430 1 1 1
     0.357581070     0.100000000     0.902716910 1 1 1
     0.374233130     0.100000000     0.920245400 1 1 1
     0.390885190     0.100000000     0.937773880 1 1 1
     0.407537250     0.100000000     0.955302370 1 1 1
     0.424189310     0.100000000     0.972830850 1 1 1
     0.440841370     0.100000000     0.990359330 1 1 1
     0.008764240     0.100000000     0.482909730 1 1 1
     0.025416300     0.100000000     0.500438210 1 1 1
     0.042068360     0.100000000     0.517966700 1 1 1
     0.058720420     0.100000000     0.535495180 1 1 1
     0.075372480     0.100000000     0.553023660 1 1 1
     0.092024540     0.100000000     0.570552150 1 1 1
     0.108676600     0.100000000     0.588080630 1 1 1
     0.125328660     0.100000000     0.605609110 1 1 1
     0.141980720     0.100000000     0.623137600 1 1 1
     0.158632780     0.100000000     0.640666080 1 1 1
     0.175284840     0.100000000     0.658194570 1 1 1
     0.191936900     0.100000000     0.675723050 1 1 1
     0.208588960     0.100000000     0.693251530 1 1 1
     0.225241020     0.100000000     0.710780020 1 1 1
     0.241893080     0.100000000     0.728308500 1 1 1
     0.258545140     0.100000000     0.745836990 1 1 1
     0.275197200     0.100000000     0.763365470 1 1 1
     0.291849260     0.100000000     0.780893950 1 1 1
     0.308501310     0.100000000     0.798422440 1 1 1
     0.325153370     0.100000000     0.815950920 1 1 1
     0.341805430     0.100000000     0.833479400 1 1 1
     0.358457490     0.100000000     0.851007890 1 1 1
     0.375109550     0.100000000     0.868536370 1 1 1
     0.391761610     0.100000000     0.886064860 1 1 1
     0.408413670     0.100000000     0.903593340 1 1 1
     0.425065730     0.100000000     0.921121820 1 1 1
     0.441717790     0.100000000     0.938650310 1 1 1
     0.458369850     0.100000000     0.956178790 1 1 1
     0.475021910     0.100000000     0.973707270 1 1 1
     0.491673970     0.100000000     0.991235760 1 1 1
     0.009640670     0.100000000     0.431200700 1 1 1
     0.026292730     0.100000000     0.448729180 1 1 1
     0.042944790     0.100000000     0.466257670 1 1 1
     0.059596840     0.100000000     0.483786150 1 1 1
     0.076248900     0.100000000     0.501314640 1 1 1
     0.092900960     0.100000000     0.518843120 1 1 1
     0.109553020     0.100000000     0.536371600 1 1 1
     0.126205080     0.100000000     0.553900090 1 1 1
     0.142857140     0.100000000     0.571428570 1 1 1
     0.159509200     0.100000000     0.588957060 1 1 1
     0.176161260     0.100000000     0.606485540 1 1 1
     0.192813320     0.100000000     0.624014020 1 1 1
     0.209465380     0.100000000     0.641542510 1 1 1
     0.226117440     0.100000000     0.659070990 1 1 1
     0.242769500     0.100000000     0.676599470 1 1 1
     0.259421560     0.100000000     0.694127960 1 1 1
     0.276073620     0.100000000     0.711656440 1 1 1
     0.292725680     0.100000000     0.729184930 1 1 1
     0.309377740     0.100000000     0.746713410 1 1 1
     0.326029800     0.100000000     0.764241890 1 1 1
     0.342681860     0.100000000     0.781770380 1 1 1
     0.359333920     0.100000000     0.799298860 1 1 1
     0.375985980     0.100000000     0.816827340 1 1 1
     0.392638040     0.100000000     0.834355830 1 1 1
     0.409290100     0.100000000     0.851884310 1 1 1
     0.425942160     0.100000000     0.869412800 1 1 1
     0.442594220     0.100000000     0.886941280 1 1 1
     0.459246280     0.100000000     0.904469760 1 1 1
     0.475898330     0.100000000     0.921998250 1 1 1
     0.492550390     0.100000000     0.939526730 1 1 1
     0.509202450     0.100000000     0.957055210 1 1 1
     0.525854510     0.100000000     0.974583700 1 1 1
     0.542506570     0.100000000     0.992112180 1 1 1
     0.010517090     0.100000000     0.379491670 1 1 1
     0.027169150     0.100000000     0.397020160 1 1 1
     0.043821210     0.100000000     0.414548640 1 1 1
     0.060473270     0.100000000     0.432077130 1 1 1
     0.077125330     0.100000000     0.449605610 1 1 1
     0.093777390     0.100000000     0.467134090 1 1 1
     0.110429450     0.100000000     0.484662580 1 1 1
     0.127081510     0.100000000     0.502191060 1 1 1
     0.143733570     0.100000000     0.519719540 1 1 1
     0.160385630     0.100000000     0.537248030 1 1 1
     0.177037690     0.100000000     0.554776510 1 1 1
     0.193689750     0.100000000     0.572305000 1 1 1
     0.210341810     0.100000000     0.589833480 1 1 1
     0.226993870     0.100000000     0.607361960 1 1 1
     0.243645920     0.100000000     0.624890450 1 1 1
     0.260297980     0.100000000     0.642418930 1 1 1
     0.276950040     0.100000000     0.659947410 1 1 1
     0.293602100     0.100000000     0.677475900 1 1 1
     0.310254160     0.100000000     0.695004380 1 1 1
     0.326906220     0.100000000     0.712532870 1 1 1
     0.343558280     0.100000000     0.730061350 1 1 1
     0.360210340     0.100000000     0.747589830 1 1 1
     0.376862400     0.100000000     0.765118320 1 1 1
     0.393514460     0.100000000     0.782646800 1 1 1
     0.410166520     0.100000000     0.800175280 1 1 1
     0.426818580     0.100000000     0.817703770 1 1 1
     0.443470640     0.100000000     0.835232250 1 1 1
     0.460122700     0.100000000     0.852760740 1 1 1
     0.476774760     0.100000000     0.870289220 1 1 1
     0.493426820     0.100000000     0.887817700 1 1 1
     0.510078880     0.100000000     0.905346190 1 1 1
     0.526730940     0.100000000     0.922874670 1 1 1
     0.543383000     0.100000000     0.940403160 1 1 1
     0.560035060     0.100000000     0.957931640 1 1 1
     0.576687120     0.100000000     0.975460120 1 1 1
     0.593339180     0.100000000     0.992988610 1 1 1
     0.011393510     0.100000000     0.327782650 1 1 1
     0.028045570     0.100000000     0.345311130 1 1 1
     0.044697630     0.100000000     0.362839610 1 1 1
     0.061349690     0.100000000     0.380368100 1 1 1
     0.078001750     0.100000000     0.397896580 1 1 1
     0.094653810     0.100000000     0.415425070 1 1 1
     0.111305870     0.100000000     0.432953550 1 1 1
     0.127957930     0.100000000     0.450482030 1 1 1
     0.144609990     0.100000000     0.468010520 1 1 1
     0.161262050     0.100000000     0.485539000 1 1 1
     0.177914110     0.100000000     0.503067480 1 1 1
     0.194566170     0.100000000     0.520595970 1 1 1
     0.211218230     0.100000000     0.538124450 1 1 1
     0.227870290     0.100000000     0.555652940 1 1 1
     0.244522350     0.100000000     0.573181420 1 1 1
     0.261174410     0.100000000     0.590709900 1 1 1
     0.277826470     0.100000000     0.608238390 1 1 1
     0.294478530     0.100000000     0.625766870 1 1 1
     0.311130590     0.100000000     0.643295350 1 1 1
     0.327782650     0.100000000     0.660823840 1 1 1
     0.344434710     0.100000000     0.678352320 1 1 1
     0.361086770     0.100000000     0.695880810 1 1 1
     0.377738830     0.100000000     0.713409290 1 1 1
     0.394390890     0.100000000     0.730937770 1 1 1
     0.411042940     0.100000000     0.748466260 1 1 1
     0.427695000     0.100000000     0.765994740 1 1 1
     0.444347060     0.100000000     0.783523230 1 1 1
     0.460999120     0.100000000     0.801051710 1 1 1
     0.477651180     0.100000000     0.818580190 1 1 1
     0.494303240     0.100000000     0.836108680 1 1 1
     0.510955300     0.100000000     0.853637160 1 1 1
     0.527607360     0.100000000     0.871165640 1 1 1
     0.544259420     0.100000000     0.888694130 1 1 1
     0.560911480     0.100000000     0.906222610 1 1 1
     0.577563540     0.100000000     0.923751100 1 1 1
     0.594215600     0.100000000     0.941279580 1 1 1
     0.610867660     0.100000000     0.958808060 1 1 1
     0.627519720     0.100000000     0.976336550 1 1 1
     0.644171780     0.100000000     0.993865030 1 1 1
     0.012269940     0.100000000     0.276073620 1 1 1
     0.028922000     0.100000000     0.293602100 1 1 1
     0.045574060     0.100000000     0.311130590 1 1 1
     0.062226120     0.100000000     0.328659070 1 1 1
     0.078878180     0.100000000     0.346187550 1 1 1
     0.095530240     0.100000000     0.363716040 1 1 1
     0.112182300     0.100000000     0.381244520 1 1 1
     0.128834360     0.100000000     0.398773010 1 1 1
     0.145486420     0.100000000     0.416301490 1 1 1
     0.162138480     0.100000000     0.433829970 1 1 1
     0.178790530     0.100000000     0.451358460 1 1 1
     0.195442590     0.100000000     0.468886940 1 1 1
     0.212094650     0.100000000     0.486415430 1 1 1
     0.228746710     0.100000000     0.503943910 1 1 1
     0.245398770     0.100000000     0.521472390 1 1 1
     0.262050830     0.100000000     0.539000880 1 1 1
     0.278702890     0.100000000     0.556529360 1 1 1
     0.295354950     0.100000000     0.574057840 1 1 1
     0.312007010     0.100000000     0.591586330 1 1 1
     0.328659070     0.100000000     0.609114810 1 1 1
     0.345311130     0.100000000     0.626643300 1 1 1
     0.361963190     0.100000000     0.644171780 1 1 1
     0.378615250     0.100000000     0.661700260 1 1 1
     0.395267310     0.100000000     0.679228750 1 1 1
     0.411919370     0.100000000     0.696757230 1 1 1
     0.428571430     0.100000000     0.714285710 1 1 1
     0.445223490     0.100000000     0.731814200 1 1 1
     0.461875550     0.100000000     0.749342680 1 1 1
     0.478527610     0.100000000     0.766871170 1 1 1
     0.495179670     0.100000000     0.784399650 1 1 1
     0.511831730     0.100000000     0.801928130 1 1 1
     0.528483790     0.100000000     0.819456620 1 1 1
     0.545135850     0.100000000     0.836985100 1 1 1
     0.561787910     0.100000000     0.854513580 1 1 1
     0.578439960     0.100000000     0.872042070 1 1 1
     0.595092020     0.100000000     0.889570550 1 1 1
     0.611744080     0.100000000     0.907099040 1 1 1
     0.628396140     0.100000000     0.924627520 1 1 1
     0.645048200     0.100000000     0.942156000 1 1 1
     0.661700260     0.100000000     0.959684490 1 1 1
     0.678352320     0.100000000     0.977212970 1 1 1
     0.695004380     0.100000000     0.994741450 1 1 1
     0.013146360     0.100000000     0.224364590 1 1 1
     0.029798420     0.100000000     0.241893080 1 1 1
     0.046450480     0.100000000     0.259421560 1 1 1
     0.063102540     0.100000000     0.276950040 1 1 1
     0.079754600     0.100000000     0.294478530 1 1 1
     0.096406660     0.100000000     0.312007010 1 1 1
     0.113058720     0.100000000     0.329535500 1 1 1
     0.129710780     0.100000000     0.347063980 1 1 1
     0.146362840     0.100000000     0.364592460 1 1 1
     0.163014900     0.100000000     0.382120950 1 1 1
     0.179666960     0.100000000     0.399649430 1 1 1
     0.196319020     0.100000000     0.417177910 1 1 1
     0.212971080     0.100000000     0.434706400 1 1 1
     0.229623140     0.100000000     0.452234880 1 1 1
     0.246275200     0.100000000     0.469763370 1 1 1
     0.262927260     0.100000000     0.487291850 1 1 1
     0.279579320     0.100000000     0.504820330 1 1 1
     0.296231380     0.100000000     0.522348820 1 1 1
     0.312883440     0.100000000     0.539877300 1 1 1
     0.329535500     0.100000000     0.557405780 1 1 1
     0.346187550     0.100000000     0.574934270 1 1 1
     0.362839610     0.100000000     0.592462750 1 1 1
     0.379491670     0.100000000     0.609991240 1 1 1
     0.396143730     0.100000000     0.627519720 1 1 1
     0.412795790     0.100000000     0.645048200 1 1 1
     0.429447850     0.100000000     0.662576690 1 1 1
     0.446099910     0.100000000     0.680105170 1 1 1
     0.462751970     0.100000000     0.697633650 1 1 1
     0.479404030     0.100000000     0.715162140 1 1 1
     0.496056090     0.100000000     0.732690620 1 1 1
     0.512708150     0.100000000     0.750219110 1 1 1
     0.529360210     0.100000000     0.767747590 1 1 1
     0.546012270     0.100000000     0.785276070 1 1 1
     0.562664330     0.100000000     0.802804560 1 1 1
     0.579316390     0.100000000     0.820333040 1 1 1
     0.595968450     0.100000000     0.837861520 1 1 1
     0.612620510     0.100000000     0.855390010 1 1 1
     0.629272570     0.100000000     0.872918490 1 1 1
     0.645924630     0.100000000     0.890446980 1 1 1
     0.662576690     0.100000000     0.907975460 1 1 1
     0.679228750     0.100000000     0.925503940 1 1 1
     0.695880810     0.100000000     0.943032430 1 1 1
     0.712532870     0.100000000     0.960560910 1 1 1
     0.729184930     0.100000000     0.978089400 1 1 1
     0.745836990     0.100000000     0.995617880 1 1 1
     0.014022790     0.100000000     0.172655570 1 1 1
     0.030674850     0.100000000     0.190184050 1 1 1
     0.047326910     0.100000000     0.207712530 1 1 1
     0.063978970     0.100000000     0.225241020 1 1 1
     0.080631030     0.100000000     0.242769500 1 1 1
     0.097283090     0.100000000     0.260297980 1 1 1
     0.113935140     0.100000000     0.277826470 1 1 1
     0.130587200     0.100000000     0.295354950 1 1 1
     0.147239260     0.100000000     0.312883440 1 1 1
     0.163891320     0.100000000     0.330411920 1 1 1
     0.180543380     0.100000000     0.347940400 1 1 1
     0.197195440     0.100000000     0.365468890 1 1 1
     0.213847500     0.100000000     0.382997370 1 1 1
     0.230499560     0.100000000     0.400525850 1 1 1
     0.247151620     0.100000000     0.418054340 1 1 1
     0.263803680     0.100000000     0.435582820 1 1 1
     0.280455740     0.100000000     0.453111310 1 1 1
     0.297107800     0.100000000     0.470639790 1 1 1
     0.313759860     0.100000000     0.488168270 1 1 1
     0.330411920     0.100000000     0.505696760 1 1 1
     0.347063980     0.100000000     0.523225240 1 1 1
     0.363716040     0.100000000     0.540753720 1 1 1
     0.380368100     0.100000000     0.558282210 1 1 1
     0.397020160     0.100000000     0.575810690 1 1 1
     0.413672220     0.100000000     0.593339180 1 1 1
     0.430324280     0.100000000     0.610867660 1 1 1
     0.446976340     0.100000000     0.628396140 1 1 1
     0.463628400     0.100000000     0.645924630 1 1 1
     0.480280460     0.100000000     0.663453110 1 1 1
     0.496932520     0.100000000     0.680981600 1 1 1
     0.513584570     0.100000000     0.698510080 1 1 1
     0.530236630     0.100000000     0.716038560 1 1 1
     0.546888690     0.100000000     0.733567050 1 1 1
     0.563540750     0.100000000     0.751095530 1 1 1
     0.580192810     0.100000000     0.768624010 1 1 1
     0.596844870     0.100000000     0.786152500 1 1 1
     0.613496930     0.100000000     0.803680980 1 1 1
     0.630148990     0.100000000     0.821209470 1 1 1
     0.646801050     0.100000000     0.838737950 1 1 1
     0.663453110     0.100000000     0.856266430 1 1 1
     0.680105170     0.100000000     0.873794920 1 1 1
     0.696757230     0.100000000     0.891323400 1 1 1
     0.713409290     0.100000000     0.908851880 1 1 1
     0.730061350     0.100000000     0.926380370 1 1 1
     0.746713410     0.100000000     0.943908850 1 1 1
     0.763365470     0.100000000     0.961437340 1 1 1
     0.780017530     0.100000000     0.978965820 1 1 1
     0.796669590     0.100000000     0.996494300 1 1 1
     0.014899210     0.100000000     0.120946540 1 1 1
     0.031551270     0.100000000     0.138475020 1 1 1
     0.048203330     0.100000000     0.156003510 1 1 1
     0.064855390     0.100000000     0.173531990 1 1 1
     0.081507450     0.100000000     0.191060470 1 1 1
     0.098159510     0.100000000     0.208588960 1 1 1
     0.114811570     0.100000000     0.226117440 1 1 1
     0.131463630     0.100000000     0.243645920 1 1 1
     0.148115690     0.100000000     0.261174410 1 1 1
     0.164767750     0.100000000     0.278702890 1 1 1
     0.181419810     0.100000000     0.296231380 1 1 1
     0.198071870     0.100000000     0.313759860 1 1 1
     0.214723930     0.100000000     0.331288340 1 1 1
     0.231375990     0.100000000     0.348816830 1 1 1
     0.248028050     0.100000000     0.366345310 1 1 1
     0.264680110     0.100000000     0.383873790 1 1 1
     0.281332160     0.100000000     0.401402280 1 1 1
     0.297984220     0.100000000     0.418930760 1 1 1
     0.314636280     0.100000000     0.436459250 1 1 1
     0.331288340     0.100000000     0.453987730 1 1 1
     0.347940400     0.100000000     0.471516210 1 1 1
     0.364592460     0.100000000     0.489044700 1 1 1
     0.381244520     0.100000000     0.506573180 1 1 1
     0.397896580     0.100000000     0.524101670 1 1 1
     0.414548640     0.100000000     0.541630150 1 1 1
     0.431200700     0.100000000     0.559158630 1 1 1
     0.447852760     0.100000000     0.576687120 1 1 1
     0.464504820     0.100000000     0.594215600 1 1 1
     0.481156880     0.100000000     0.611744080 1 1 1
     0.497808940     0.100000000     0.629272570 1 1 1
     0.514461000     0.100000000     0.646801050 1 1 1
     0.531113060     0.100000000     0.664329540 1 1 1
     0.547765120     0.100000000     0.681858020 1 1 1
     0.564417180     0.100000000     0.699386500 1 1 1
     0.581069240     0.100000000     0.716914990 1 1 1
     0.597721300     0.100000000     0.734443470 1 1 1
     0.614373360     0.100000000     0.751971950 1 1 1
     0.631025420     0.100000000     0.769500440 1 1 1
     0.647677480     0.100000000     0.787028920 1 1 1
     0.664329540     0.100000000     0.804557410 1 1 1
     0.680981600     0.100000000     0.822085890 1 1 1
     0.697633650     0.100000000     0.839614370 1 1 1
     0.714285710     0.100000000     0.857142860 1 1 1
     0.730937770     0.100000000     0.874671340 1 1 1
     0.747589830     0.100000000     0.892199820 1 1 1
     0.764241890     0.100000000     0.909728310 1 1 1
     0.780893950     0.100000000     0.927256790 1 1 1
     0.797546010     0.100000000     0.944785280 1 1 1
     0.814198070     0.100000000     0.962313760 1 1 1
     0.830850130     0.100000000     0.979842240 1 1 1
     0.847502190     0.100000000     0.997370730 1 1 1
     0.015775640     0.100000000     0.069237510 1 1 1
     0.032427700     0.100000000     0.086765990 1 1 1
     0.049079750     0.100000000     0.104294480 1 1 1
     0.065731810     0.100000000     0.121822960 1 1 1
     0.082383870     0.100000000     0.139351450 1 1 1
     0.099035930     0.100000000     0.156879930 1 1 1
     0.115687990     0.100000000     0.174408410 1 1 1
     0.132340050     0.100000000     0.191936900 1 1 1
     0.148992110     0.100000000     0.209465380 1 1 1
     0.165644170     0.100000000     0.226993870 1 1 1
     0.182296230     0.100000000     0.244522350 1 1 1
     0.198948290     0.100000000     0.262050830 1 1 1
     0.215600350     0.100000000     0.279579320 1 1 1
     0.232252410     0.100000000     0.297107800 1 1 1
     0.248904470     0.100000000     0.314636280 1 1 1
     0.265556530     0.100000000     0.332164770 1 1 1
     0.282208590     0.100000000     0.349693250 1 1 1
     0.298860650     0.100000000     0.367221740 1 1 1
     0.315512710     0.100000000     0.384750220 1 1 1
     0.332164770     0.100000000     0.402278700 1 1 1
     0.348816830     0.100000000     0.419807190 1 1 1
     0.365468890     0.100000000     0.437335670 1 1 1
     0.382120950     0.100000000     0.454864150 1 1 1
     0.398773010     0.100000000     0.472392640 1 1 1
     0.415425070     0.100000000     0.489921120 1 1 1
     0.432077130     0.100000000     0.507449610 1 1 1
     0.448729180     0.100000000     0.524978090 1 1 1
     0.465381240     0.100000000     0.542506570 1 1 1
     0.482033300     0.100000000     0.560035060 1 1 1
     0.498685360     0.100000000     0.577563540 1 1 1
     0.515337420     0.100000000     0.595092020 1 1 1
     0.531989480     0.100000000     0.612620510 1 1 1
     0.548641540     0.100000000     0.630148990 1 1 1
     0.565293600     0.100000000     0.647677480 1 1 1
     0.581945660     0.100000000     0.665205960 1 1 1
     0.598597720     0.100000000     0.682734440 1 1 1
     0.615249780     0.100000000     0.700262930 1 1 1
     0.631901840     0.100000000     0.717791410 1 1 1
     0.648553900     0.100000000     0.735319890 1 1 1
     0.665205960     0.100000000     0.752848380 1 1 1
     0.681858020     0.100000000     0.770376860 1 1 1
     0.698510080     0.100000000     0.787905350 1 1 1
     0.715162140     0.100000000     0.805433830 1 1 1
     0.731814200     0.100000000     0.822962310 1 1 1
     0.748466260     0.100000000     0.840490800 1 1 1
     0.765118320     0.100000000     0.858019280 1 1 1
     0.781770380     0.100000000     0.875547770 1 1 1
     0.798422440     0.100000000     0.893076250 1 1 1
     0.815074500     0.100000000     0.910604730 1 1 1
     0.831726560     0.100000000     0.928133220 1 1 1
     0.848378620     0.100000000     0.945661700 1 1 1
     0.865030670     0.100000000     0.963190180 1 1 1
     0.881682730     0.100000000     0.980718670 1 1 1
     0.898334790     0.100000000     0.998247150 1 1 1
     0.000000000     0.100000000     0.000000000 1 1 1
     0.016652060     0.100000000     0.017528480 1 1 1
     0.033304120     0.100000000     0.035056970 1 1 1
     0.049956180     0.100000000     0.052585450 1 1 1
     0.066608240     0.100000000     0.070113940 1 1 1
     0.083260300     0.100000000     0.087642420 1 1 1
     0.099912360     0.100000000     0.105170900 1 1 1
     0.116564420     0.100000000     0.122699390 1 1 1
     0.133216480     0.100000000     0.140227870 1 1 1
     0.149868540     0.100000000     0.157756350 1 1 1
     0.166520600     0.100000000     0.175284840 1 1 1
     0.183172660     0.100000000     0.192813320 1 1 1
     0.199824720     0.100000000     0.210341810 1 1 1
     0.216476770     0.100000000     0.227870290 1 1 1
     0.233128830     0.100000000     0.245398770 1 1 1
     0.249780890     0.100000000     0.262927260 1 1 1
     0.266432950     0.100000000     0.280455740 1 1 1
     0.283085010     0.100000000     0.297984220 1 1 1
     0.299737070     0.100000000     0.315512710 1 1 1
     0.316389130     0.100000000     0.333041190 1 1 1
     0.333041190     0.100000000     0.350569680 1 1 1
     0.349693250     0.100000000     0.368098160 1 1 1
     0.366345310     0.100000000     0.385626640 1 1 1
     0.382997370     0.100000000     0.403155130 1 1 1
     0.399649430     0.100000000     0.420683610 1 1 1
     0.416301490     0.100000000     0.438212090 1 1 1