ATOMIC_SPECIES
C 6.000 ./C_ONCV_PBE-1.0.upf

NUMERICAL_ORBITAL
./C_gga_8au_100Ry_2s2p1d.orb

LATTICE_CONSTANT
1.889716

LATTICE_VECTORS
       94.69075000       53.24973702       0.00000000
       1.22975000       108.62946351       0.00000000
       0.00000000       0.00000000       30.00000000

ATOMIC_POSITIONS
Direct

C
0.0
7804
     0.00051256     0.96053306     0.10000000 1 1 1
     0.01332650     0.97385956     0.10000000 1 1 1
     0.02614044     0.98718606     0.10000000 1 1 1
     0.00102512     0.92106612     0.10000000 1 1 1
     0.01383906     0.93439262     0.10000000 1 1 1
     0.02665300     0.94771912     0.10000000 1 1 1
     0.03946694     0.96104562     0.10000000 1 1 1
     0.05228088     0.97437212     0.10000000 1 1 1
     0.06509482     0.98769862     0.10000000 1 1 1
     0.00153767     0.88159918     0.10000000 1 1 1
     0.01435161     0.89492568     0.10000000 1 1 1
     0.02716556     0.90825218     0.10000000 1 1 1
     0.03997950     0.92157868     0.10000000 1 1 1
     0.05279344     0.93490518     0.10000000 1 1 1
     0.06560738     0.94823168     0.10000000 1 1 1
     0.07842132     0.96155818     0.10000000 1 1 1
     0.09123526     0.97488467     0.10000000 1 1 1
     0.10404921     0.98821117     0.10000000 1 1 1
     0.00205023     0.84213224     0.10000000 1 1 1
     0.01486417     0.85545874     0.10000000 1 1 1
     0.02767811     0.86878524     0.10000000 1 1 1
     0.04049206     0.88211174     0.10000000 1 1 1
     0.05330600     0.89543824     0.10000000 1 1 1
     0.06611994     0.90876474     0.10000000 1 1 1
     0.07893388     0.92209124     0.10000000 1 1 1
     0.09174782     0.93541773     0.10000000 1 1 1
     0.10456176     0.94874423     0.10000000 1 1 1
     0.11737570     0.96207073     0.10000000 1 1 1
     0.13018965     0.97539723     0.10000000 1 1 1
     0.14300359     0.98872373     0.10000000 1 1 1
     0.00256279     0.80266530     0.10000000 1 1 1
     0.01537673     0.81599180     0.10000000 1 1 1
     0.02819067     0.82931830     0.10000000 1 1 1
     0.04100461     0.84264480     0.10000000 1 1 1
     0.05381855     0.85597130     0.10000000 1 1 1
     0.06663250     0.86929780     0.10000000 1 1 1
     0.07944644     0.88262430     0.10000000 1 1 1
     0.09226038     0.89595079     0.10000000 1 1 1
     0.10507432     0.90927729     0.10000000 1 1 1
     0.11788826     0.92260379     0.10000000 1 1 1
     0.13070220     0.93593029     0.10000000 1 1 1
     0.14351615     0.94925679     0.10000000 1 1 1
     0.15633009     0.96258329     0.10000000 1 1 1
     0.16914403     0.97590979     0.10000000 1 1 1
     0.18195797     0.98923629     0.10000000 1 1 1
     0.00307535     0.76319836     0.10000000 1 1 1
     0.01588929     0.77652486     0.10000000 1 1 1
     0.02870323     0.78985136     0.10000000 1 1 1
     0.04151717     0.80317786     0.10000000 1 1 1
     0.05433111     0.81650436     0.10000000 1 1 1
     0.06714505     0.82983086     0.10000000 1 1 1
     0.07995900     0.84315736     0.10000000 1 1 1
     0.09277294     0.85648385     0.10000000 1 1 1
     0.10558688     0.86981035     0.10000000 1 1 1
     0.11840082     0.88313685     0.10000000 1 1 1
     0.13121476     0.89646335     0.10000000 1 1 1
     0.14402870     0.90978985     0.10000000 1 1 1
     0.15684264     0.92311635     0.10000000 1 1 1
     0.16965659     0.93644285     0.10000000 1 1 1
     0.18247053     0.94976935     0.10000000 1 1 1
     0.19528447     0.96309585     0.10000000 1 1 1
     0.20809841     0.97642235     0.10000000 1 1 1
     0.22091235     0.98974885     0.10000000 1 1 1
     0.00358790     0.72373142     0.10000000 1 1 1
     0.01640185     0.73705792     0.10000000 1 1 1
     0.02921579     0.75038442     0.10000000 1 1 1
     0.04202973     0.76371092     0.10000000 1 1 1
     0.05484367     0.77703742     0.10000000 1 1 1
     0.06765761     0.79036392     0.10000000 1 1 1
     0.08047155     0.80369042     0.10000000 1 1 1
     0.09328549     0.81701691     0.10000000 1 1 1
     0.10609944     0.83034341     0.10000000 1 1 1
     0.11891338     0.84366991     0.10000000 1 1 1
     0.13172732     0.85699641     0.10000000 1 1 1
     0.14454126     0.87032291     0.10000000 1 1 1
     0.15735520     0.88364941     0.10000000 1 1 1
     0.17016914     0.89697591     0.10000000 1 1 1
     0.18298309     0.91030241     0.10000000 1 1 1
     0.19579703     0.92362891     0.10000000 1 1 1
     0.20861097     0.93695541     0.10000000 1 1 1
     0.22142491     0.95028191     0.10000000 1 1 1
     0.23423885     0.96360841     0.10000000 1 1 1
     0.24705279     0.97693491     0.10000000 1 1 1
     0.25986674     0.99026140     0.10000000 1 1 1
     0.00410046     0.68426448     0.10000000 1 1 1
     0.01691440     0.69759098     0.10000000 1 1 1
     0.02972834     0.71091748     0.10000000 1 1 1
     0.04254229     0.72424398     0.10000000 1 1 1
     0.05535623     0.73757048     0.10000000 1 1 1
     0.06817017     0.75089698     0.10000000 1 1 1
     0.08098411     0.76422348     0.10000000 1 1 1
     0.09379805     0.77754997     0.10000000 1 1 1
     0.10661199     0.79087647     0.10000000 1 1 1
     0.11942594     0.80420297     0.10000000 1 1 1
     0.13223988     0.81752947     0.10000000 1 1 1
     0.14505382     0.83085597     0.10000000 1 1 1
     0.15786776     0.84418247     0.10000000 1 1 1
     0.17068170     0.85750897     0.10000000 1 1 1
     0.18349564     0.87083547     0.10000000 1 1 1
     0.19630958     0.88416197     0.10000000 1 1 1
     0.20912353     0.89748847     0.10000000 1 1 1
     0.22193747     0.91081497     0.10000000 1 1 1
     0.23475141     0.92414147     0.10000000 1 1 1
     0.24756535     0.93746797     0.10000000 1 1 1
     0.26037929     0.95079446     0.10000000 1 1 1
     0.27319323     0.96412096     0.10000000 1 1 1
     0.28600718     0.97744746     0.10000000 1 1 1
     0.29882112     0.99077396     0.10000000 1 1 1
     0.00461302     0.64479754     0.10000000 1 1 1
     0.01742696     0.65812404     0.10000000 1 1 1
     0.03024090     0.67145054     0.10000000 1 1 1
     0.04305484     0.68477704     0.10000000 1 1 1
     0.05586879     0.69810354     0.10000000 1 1 1
     0.06868273     0.71143004     0.10000000 1 1 1
     0.08149667     0.72475654     0.10000000 1 1 1
     0.09431061     0.73808303     0.10000000 1 1 1
     0.10712455     0.75140953     0.10000000 1 1 1
     0.11993849     0.76473603     0.10000000 1 1 1
     0.13275243     0.77806253     0.10000000 1 1 1
     0.14556638     0.79138903     0.10000000 1 1 1
     0.15838032     0.80471553     0.10000000 1 1 1
     0.17119426     0.81804203     0.10000000 1 1 1
     0.18400820     0.83136853     0.10000000 1 1 1
     0.19682214     0.84469503     0.10000000 1 1 1
     0.20963608     0.85802153     0.10000000 1 1 1
     0.22245003     0.87134803     0.10000000 1 1 1
     0.23526397     0.88467453     0.10000000 1 1 1
     0.24807791     0.89800103     0.10000000 1 1 1
     0.26089185     0.91132752     0.10000000 1 1 1
     0.27370579     0.92465402     0.10000000 1 1 1
     0.28651973     0.93798052     0.10000000 1 1 1
     0.29933368     0.95130702     0.10000000 1 1 1
     0.31214762     0.96463352     0.10000000 1 1 1
     0.32496156     0.97796002     0.10000000 1 1 1
     0.33777550     0.99128652     0.10000000 1 1 1
     0.00512558     0.60533060     0.10000000 1 1 1
     0.01793952     0.61865710     0.10000000 1 1 1
     0.03075346     0.63198360     0.10000000 1 1 1
     0.04356740     0.64531010     0.10000000 1 1 1
     0.05638134     0.65863660     0.10000000 1 1 1
     0.06919528     0.67196310     0.10000000 1 1 1
     0.08200923     0.68528960     0.10000000 1 1 1
     0.09482317     0.69861609     0.10000000 1 1 1
     0.10763711     0.71194259     0.10000000 1 1 1
     0.12045105     0.72526909     0.10000000 1 1 1
     0.13326499     0.73859559     0.10000000 1 1 1
     0.14607893     0.75192209     0.10000000 1 1 1
     0.15889288     0.76524859     0.10000000 1 1 1
     0.17170682     0.77857509     0.10000000 1 1 1
     0.18452076     0.79190159     0.10000000 1 1 1
     0.19733470     0.80522809     0.10000000 1 1 1
     0.21014864     0.81855459     0.10000000 1 1 1
     0.22296258     0.83188109     0.10000000 1 1 1
     0.23577652     0.84520759     0.10000000 1 1 1
     0.24859047     0.85853409     0.10000000 1 1 1
     0.26140441     0.87186058     0.10000000 1 1 1
     0.27421835     0.88518708     0.10000000 1 1 1
     0.28703229     0.89851358     0.10000000 1 1 1
     0.29984623     0.91184008     0.10000000 1 1 1
     0.31266017     0.92516658     0.10000000 1 1 1
     0.32547412     0.93849308     0.10000000 1 1 1
     0.33828806     0.95181958     0.10000000 1 1 1
     0.35110200     0.96514608     0.10000000 1 1 1
     0.36391594     0.97847258     0.10000000 1 1 1
     0.37672988     0.99179908     0.10000000 1 1 1
     0.00563813     0.56586366     0.10000000 1 1 1
     0.01845208     0.57919016     0.10000000 1 1 1
     0.03126602     0.59251666     0.10000000 1 1 1
     0.04407996     0.60584316     0.10000000 1 1 1
     0.05689390     0.61916966     0.10000000 1 1 1
     0.06970784     0.63249616     0.10000000 1 1 1
     0.08252178     0.64582266     0.10000000 1 1 1
     0.09533573     0.65914915     0.10000000 1 1 1
     0.10814967     0.67247565     0.10000000 1 1 1
     0.12096361     0.68580215     0.10000000 1 1 1
     0.13377755     0.69912865     0.10000000 1 1 1
     0.14659149     0.71245515     0.10000000 1 1 1
     0.15940543     0.72578165     0.10000000 1 1 1
     0.17221937     0.73910815     0.10000000 1 1 1
     0.18503332     0.75243465     0.10000000 1 1 1
     0.19784726     0.76576115     0.10000000 1 1 1
     0.21066120     0.77908765     0.10000000 1 1 1
     0.22347514     0.79241415     0.10000000 1 1 1
     0.23628908     0.80574065     0.10000000 1 1 1
     0.24910302     0.81906715     0.10000000 1 1 1
     0.26191697     0.83239364     0.10000000 1 1 1
     0.27473091     0.84572014     0.10000000 1 1 1
     0.28754485     0.85904664     0.10000000 1 1 1
     0.30035879     0.87237314     0.10000000 1 1 1
     0.31317273     0.88569964     0.10000000 1 1 1
     0.32598667     0.89902614     0.10000000 1 1 1
     0.33880062     0.91235264     0.10000000 1 1 1
     0.35161456     0.92567914     0.10000000 1 1 1
     0.36442850     0.93900564     0.10000000 1 1 1
     0.37724244     0.95233214     0.10000000 1 1 1
     0.39005638     0.96565864     0.10000000 1 1 1
     0.40287032     0.97898514     0.10000000 1 1 1
     0.41568426     0.99231164     0.10000000 1 1 1
     0.00615069     0.52639672     0.10000000 1 1 1
     0.01896463     0.53972322     0.10000000 1 1 1
     0.03177858     0.55304972     0.10000000 1 1 1
     0.04459252     0.56637622     0.10000000 1 1 1
     0.05740646     0.57970272     0.10000000 1 1 1
     0.07022040     0.59302922     0.10000000 1 1 1
     0.08303434     0.60635572     0.10000000 1 1 1
     0.09584828     0.61968221     0.10000000 1 1 1
     0.10866222     0.63300871     0.10000000 1 1 1
     0.12147617     0.64633521     0.10000000 1 1 1
     0.13429011     0.65966171     0.10000000 1 1 1
     0.14710405     0.67298821     0.10000000 1 1 1
     0.15991799     0.68631471     0.10000000 1 1 1
     0.17273193     0.69964121     0.10000000 1 1 1
     0.18554587     0.71296771     0.10000000 1 1 1
     0.19835982     0.72629421     0.10000000 1 1 1
     0.21117376     0.73962071     0.10000000 1 1 1
     0.22398770     0.75294721     0.10000000 1 1 1
     0.23680164     0.76627371     0.10000000 1 1 1
     0.24961558     0.77960021     0.10000000 1 1 1
     0.26242952     0.79292670     0.10000000 1 1 1
     0.27524346     0.80625320     0.10000000 1 1 1
     0.28805741     0.81957970     0.10000000 1 1 1
     0.30087135     0.83290620     0.10000000 1 1 1
     0.31368529     0.84623270     0.10000000 1 1 1
     0.32649923     0.85955920     0.10000000 1 1 1
     0.33931317     0.87288570     0.10000000 1 1 1
     0.35212711     0.88621220     0.10000000 1 1 1
     0.36494106     0.89953870     0.10000000 1 1 1
     0.37775500     0.91286520     0.10000000 1 1 1
     0.39056894     0.92619170     0.10000000 1 1 1
     0.40338288     0.93951820     0.10000000 1 1 1
     0.41619682     0.95284470     0.10000000 1 1 1
     0.42901076     0.96617119     0.10000000 1 1 1
     0.44182471     0.97949769     0.10000000 1 1 1
     0.45463865     0.99282419     0.10000000 1 1 1
     0.00666325     0.48692978     0.10000000 1 1 1
     0.01947719     0.50025628     0.10000000 1 1 1
     0.03229113     0.51358278     0.10000000 1 1 1
     0.04510507     0.52690928     0.10000000 1 1 1
     0.05791902     0.54023578     0.10000000 1 1 1
     0.07073296     0.55356228     0.10000000 1 1 1
     0.08354690     0.56688877     0.10000000 1 1 1
     0.09636084     0.58021527     0.10000000 1 1 1
     0.10917478     0.59354177     0.10000000 1 1 1
     0.12198872     0.60686827     0.10000000 1 1 1
     0.13480267     0.62019477     0.10000000 1 1 1
     0.14761661     0.63352127     0.10000000 1 1 1
     0.16043055     0.64684777     0.10000000 1 1 1
     0.17324449     0.66017427     0.10000000 1 1 1
     0.18605843     0.67350077     0.10000000 1 1 1
     0.19887237     0.68682727     0.10000000 1 1 1
     0.21168631     0.70015377     0.10000000 1 1 1
     0.22450026     0.71348027     0.10000000 1 1 1
     0.23731420     0.72680677     0.10000000 1 1 1
     0.25012814     0.74013326     0.10000000 1 1 1
     0.26294208     0.75345976     0.10000000 1 1 1
     0.27575602     0.76678626     0.10000000 1 1 1
     0.28856996     0.78011276     0.10000000 1 1 1
     0.30138391     0.79343926     0.10000000 1 1 1
     0.31419785     0.80676576     0.10000000 1 1 1
     0.32701179     0.82009226     0.10000000 1 1 1
     0.33982573     0.83341876     0.10000000 1 1 1
     0.35263967     0.84674526     0.10000000 1 1 1
     0.36545361     0.86007176     0.10000000 1 1 1
     0.37826756     0.87339826     0.10000000 1 1 1
     0.39108150     0.88672476     0.10000000 1 1 1
     0.40389544     0.90005126     0.10000000 1 1 1
     0.41670938     0.91337775     0.10000000 1 1 1
     0.42952332     0.92670425     0.10000000 1 1 1
     0.44233726     0.94003075     0.10000000 1 1 1
     0.45515120     0.95335725     0.10000000 1 1 1
     0.46796515     0.96668375     0.10000000 1 1 1
     0.48077909     0.98001025     0.10000000 1 1 1
     0.49359303     0.99333675     0.10000000 1 1 1
     0.00717581     0.44746284     0.10000000 1 1 1
     0.01998975     0.46078934     0.10000000 1 1 1
     0.03280369     0.47411584     0.10000000 1 1 1
     0.04561763     0.48744234     0.10000000 1 1 1
     0.05843157     0.50076884     0.10000000 1 1 1
     0.07124552     0.51409534     0.10000000 1 1 1
     0.08405946     0.52742183     0.10000000 1 1 1
     0.09687340     0.54074833     0.10000000 1 1 1
     0.10968734     0.55407483     0.10000000 1 1 1
     0.12250128     0.56740133     0.10000000 1 1 1
     0.13531522     0.58072783     0.10000000 1 1 1
     0.14812916     0.59405433     0.10000000 1 1 1
     0.16094311     0.60738083     0.10000000 1 1 1
     0.17375705     0.62070733     0.10000000 1 1 1
     0.18657099     0.63403383     0.10000000 1 1 1
     0.19938493     0.64736033     0.10000000 1 1 1
     0.21219887     0.66068683     0.10000000 1 1 1
     0.22501281     0.67401333     0.10000000 1 1 1
     0.23782676     0.68733983     0.10000000 1 1 1
     0.25064070     0.70066632     0.10000000 1 1 1
     0.26345464     0.71399282     0.10000000 1 1 1
     0.27626858     0.72731932     0.10000000 1 1 1
     0.28908252     0.74064582     0.10000000 1 1 1
     0.30189646     0.75397232     0.10000000 1 1 1
     0.31471040     0.76729882     0.10000000 1 1 1
     0.32752435     0.78062532     0.10000000 1 1 1
     0.34033829     0.79395182     0.10000000 1 1 1
     0.35315223     0.80727832     0.10000000 1 1 1
     0.36596617     0.82060482     0.10000000 1 1 1
     0.37878011     0.83393132     0.10000000 1 1 1
     0.39159405     0.84725782     0.10000000 1 1 1
     0.40440800     0.86058432     0.10000000 1 1 1
     0.41722194     0.87391081     0.10000000 1 1 1
     0.43003588     0.88723731     0.10000000 1 1 1
     0.44284982     0.90056381     0.10000000 1 1 1
     0.45566376     0.91389031     0.10000000 1 1 1
     0.46847770     0.92721681     0.10000000 1 1 1
     0.48129165     0.94054331     0.10000000 1 1 1
     0.49410559     0.95386981     0.10000000 1 1 1
     0.50691953     0.96719631     0.10000000 1 1 1
     0.51973347     0.98052281     0.10000000 1 1 1
     0.53254741     0.99384931     0.10000000 1 1 1
     0.00768836     0.40799590     0.10000000 1 1 1
     0.02050231     0.42132240     0.10000000 1 1 1
     0.03331625     0.43464890     0.10000000 1 1 1
     0.04613019     0.44797540     0.10000000 1 1 1
     0.05894413     0.46130190     0.10000000 1 1 1
     0.07175807     0.47462840     0.10000000 1 1 1
     0.08457201     0.48795489     0.10000000 1 1 1
     0.09738596     0.50128139     0.10000000 1 1 1
     0.11019990     0.51460789     0.10000000 1 1 1
     0.12301384     0.52793439     0.10000000 1 1 1
     0.13582778     0.54126089     0.10000000 1 1 1
     0.14864172     0.55458739     0.10000000 1 1 1
     0.16145566     0.56791389     0.10000000 1 1 1
     0.17426961     0.58124039     0.10000000 1 1 1
     0.18708355     0.59456689     0.10000000 1 1 1
     0.19989749     0.60789339     0.10000000 1 1 1
     0.21271143     0.62121989     0.10000000 1 1 1
     0.22552537     0.63454639     0.10000000 1 1 1
     0.23833931     0.64787289     0.10000000 1 1 1
     0.25115325     0.66119938     0.10000000 1 1 1
     0.26396720     0.67452588     0.10000000 1 1 1
     0.27678114     0.68785238     0.10000000 1 1 1
     0.28959508     0.70117888     0.10000000 1 1 1
     0.30240902     0.71450538     0.10000000 1 1 1
     0.31522296     0.72783188     0.10000000 1 1 1
     0.32803690     0.74115838     0.10000000 1 1 1
     0.34085085     0.75448488     0.10000000 1 1 1
     0.35366479     0.76781138     0.10000000 1 1 1
     0.36647873     0.78113788     0.10000000 1 1 1
     0.37929267     0.79446438     0.10000000 1 1 1
     0.39210661     0.80779088     0.10000000 1 1 1
     0.40492055     0.82111738     0.10000000 1 1 1
     0.41773450     0.83444387     0.10000000 1 1 1
     0.43054844     0.84777037     0.10000000 1 1 1
     0.44336238     0.86109687     0.10000000 1 1 1
     0.45617632     0.87442337     0.10000000 1 1 1
     0.46899026     0.88774987     0.10000000 1 1 1
     0.48180420     0.90107637     0.10000000 1 1 1
     0.49461814     0.91440287     0.10000000 1 1 1
     0.50743209     0.92772937     0.10000000 1 1 1
     0.52024603     0.94105587     0.10000000 1 1 1
     0.53305997     0.95438237     0.10000000 1 1 1
     0.54587391     0.96770887     0.10000000 1 1 1
     0.55868785     0.98103537     0.10000000 1 1 1
     0.57150179     0.99436187     0.10000000 1 1 1
     0.00820092     0.36852896     0.10000000 1 1 1
     0.02101486     0.38185546     0.10000000 1 1 1
     0.03382881     0.39518196     0.10000000 1 1 1
     0.04664275     0.40850846     0.10000000 1 1 1
     0.05945669     0.42183496     0.10000000 1 1 1
     0.07227063     0.43516146     0.10000000 1 1 1
     0.08508457     0.44848795     0.10000000 1 1 1
     0.09789851     0.46181445     0.10000000 1 1 1
     0.11071246     0.47514095     0.10000000 1 1 1
     0.12352640     0.48846745     0.10000000 1 1 1
     0.13634034     0.50179395     0.10000000 1 1 1
     0.14915428     0.51512045     0.10000000 1 1 1
     0.16196822     0.52844695     0.10000000 1 1 1
     0.17478216     0.54177345     0.10000000 1 1 1
     0.18759610     0.55509995     0.10000000 1 1 1
     0.20041005     0.56842645     0.10000000 1 1 1
     0.21322399     0.58175295     0.10000000 1 1 1
     0.22603793     0.59507945     0.10000000 1 1 1
     0.23885187     0.60840595     0.10000000 1 1 1
     0.25166581     0.62173244     0.10000000 1 1 1
     0.26447975     0.63505894     0.10000000 1 1 1
     0.27729370     0.64838544     0.10000000 1 1 1
     0.29010764     0.66171194     0.10000000 1 1 1
     0.30292158     0.67503844     0.10000000 1 1 1
     0.31573552     0.68836494     0.10000000 1 1 1
     0.32854946     0.70169144     0.10000000 1 1 1
     0.34136340     0.71501794     0.10000000 1 1 1
     0.35417734     0.72834444     0.10000000 1 1 1
     0.36699129     0.74167094     0.10000000 1 1 1
     0.37980523     0.75499744     0.10000000 1 1 1
     0.39261917     0.76832394     0.10000000 1 1 1
     0.40543311     0.78165044     0.10000000 1 1 1
     0.41824705     0.79497693     0.10000000 1 1 1
     0.43106099     0.80830343     0.10000000 1 1 1
     0.44387494     0.82162993     0.10000000 1 1 1
     0.45668888     0.83495643     0.10000000 1 1 1
     0.46950282     0.84828293     0.10000000 1 1 1
     0.48231676     0.86160943     0.10000000 1 1 1
     0.49513070     0.87493593     0.10000000 1 1 1
     0.50794464     0.88826243     0.10000000 1 1 1
     0.52075859     0.90158893     0.10000000 1 1 1
     0.53357253     0.91491543     0.10000000 1 1 1
     0.54638647     0.92824193     0.10000000 1 1 1
     0.55920041     0.94156843     0.10000000 1 1 1
     0.57201435     0.95489493     0.10000000 1 1 1
     0.58482829     0.96822142     0.10000000 1 1 1
     0.59764223     0.98154792     0.10000000 1 1 1
     0.61045618     0.99487442     0.10000000 1 1 1
     0.00871348     0.32906202     0.10000000 1 1 1
     0.02152742     0.34238852     0.10000000 1 1 1
     0.03434136     0.35571502     0.10000000 1 1 1
     0.04715530     0.36904152     0.10000000 1 1 1
     0.05996925     0.38236802     0.10000000 1 1 1
     0.07278319     0.39569452     0.10000000 1 1 1
     0.08559713     0.40902101     0.10000000 1 1 1
     0.09841107     0.42234751     0.10000000 1 1 1
     0.11122501     0.43567401     0.10000000 1 1 1
     0.12403895     0.44900051     0.10000000 1 1 1
     0.13685290     0.46232701     0.10000000 1 1 1
     0.14966684     0.47565351     0.10000000 1 1 1
     0.16248078     0.48898001     0.10000000 1 1 1
     0.17529472     0.50230651     0.10000000 1 1 1
     0.18810866     0.51563301     0.10000000 1 1 1
     0.20092260     0.52895951     0.10000000 1 1 1
     0.21373655     0.54228601     0.10000000 1 1 1
     0.22655049     0.55561251     0.10000000 1 1 1
     0.23936443     0.56893901     0.10000000 1 1 1
     0.25217837     0.58226550     0.10000000 1 1 1
     0.26499231     0.59559200     0.10000000 1 1 1
     0.27780625     0.60891850     0.10000000 1 1 1
     0.29062019     0.62224500     0.10000000 1 1 1
     0.30343414     0.63557150     0.10000000 1 1 1
     0.31624808     0.64889800     0.10000000 1 1 1
     0.32906202     0.66222450     0.10000000 1 1 1
     0.34187596     0.67555100     0.10000000 1 1 1
     0.35468990     0.68887750     0.10000000 1 1 1
     0.36750384     0.70220400     0.10000000 1 1 1
     0.38031779     0.71553050     0.10000000 1 1 1
     0.39313173     0.72885700     0.10000000 1 1 1
     0.40594567     0.74218350     0.10000000 1 1 1
     0.41875961     0.75550999     0.10000000 1 1 1
     0.43157355     0.76883649     0.10000000 1 1 1
     0.44438749     0.78216299     0.10000000 1 1 1
     0.45720144     0.79548949     0.10000000 1 1 1
     0.47001538     0.80881599     0.10000000 1 1 1
     0.48282932     0.82214249     0.10000000 1 1 1
     0.49564326     0.83546899     0.10000000 1 1 1
     0.50845720     0.84879549     0.10000000 1 1 1
     0.52127114     0.86212199     0.10000000 1 1 1
     0.53408508     0.87544849     0.10000000 1 1 1
     0.54689903     0.88877499     0.10000000 1 1 1
     0.55971297     0.90210149     0.10000000 1 1 1
     0.57252691     0.91542799     0.10000000 1 1 1
     0.58534085     0.92875448     0.10000000 1 1 1
     0.59815479     0.94208098     0.10000000 1 1 1
     0.61096873     0.95540748     0.10000000 1 1 1
     0.62378268     0.96873398     0.10000000 1 1 1
     0.63659662     0.98206048     0.10000000 1 1 1
     0.64941056     0.99538698     0.10000000 1 1 1
     0.00922604     0.28959508     0.10000000 1 1 1
     0.02203998     0.30292158     0.10000000 1 1 1
     0.03485392     0.31624808     0.10000000 1 1 1
     0.04766786     0.32957458     0.10000000 1 1 1
     0.06048180     0.34290108     0.10000000 1 1 1
     0.07329575     0.35622758     0.10000000 1 1 1
     0.08610969     0.36955407     0.10000000 1 1 1
     0.09892363     0.38288057     0.10000000 1 1 1
     0.11173757     0.39620707     0.10000000 1 1 1
     0.12455151     0.40953357     0.10000000 1 1 1
     0.13736545     0.42286007     0.10000000 1 1 1
     0.15017940     0.43618657     0.10000000 1 1 1
     0.16299334     0.44951307     0.10000000 1 1 1
     0.17580728     0.46283957     0.10000000 1 1 1
     0.18862122     0.47616607     0.10000000 1 1 1
     0.20143516     0.48949257     0.10000000 1 1 1
     0.21424910     0.50281907     0.10000000 1 1 1
     0.22706304     0.51614557     0.10000000 1 1 1
     0.23987699     0.52947207     0.10000000 1 1 1
     0.25269093     0.54279856     0.10000000 1 1 1
     0.26550487     0.55612506     0.10000000 1 1 1
     0.27831881     0.56945156     0.10000000 1 1 1
     0.29113275     0.58277806     0.10000000 1 1 1
     0.30394669     0.59610456     0.10000000 1 1 1
     0.31676064     0.60943106     0.10000000 1 1 1
     0.32957458     0.62275756     0.10000000 1 1 1
     0.34238852     0.63608406     0.10000000 1 1 1
     0.35520246     0.64941056     0.10000000 1 1 1
     0.36801640     0.66273706     0.10000000 1 1 1
     0.38083034     0.67606356     0.10000000 1 1 1
     0.39364428     0.68939006     0.10000000 1 1 1
     0.40645823     0.70271656     0.10000000 1 1 1
     0.41927217     0.71604305     0.10000000 1 1 1
     0.43208611     0.72936955     0.10000000 1 1 1
     0.44490005     0.74269605     0.10000000 1 1 1
     0.45771399     0.75602255     0.10000000 1 1 1
     0.47052793     0.76934905     0.10000000 1 1 1
     0.48334188     0.78267555     0.10000000 1 1 1
     0.49615582     0.79600205     0.10000000 1 1 1
     0.50896976     0.80932855     0.10000000 1 1 1
     0.52178370     0.82265505     0.10000000 1 1 1
     0.53459764     0.83598155     0.10000000 1 1 1
     0.54741158     0.84930805     0.10000000 1 1 1
     0.56022553     0.86263455     0.10000000 1 1 1
     0.57303947     0.87596105     0.10000000 1 1 1
     0.58585341     0.88928754     0.10000000 1 1 1
     0.59866735     0.90261404     0.10000000 1 1 1
     0.61148129     0.91594054     0.10000000 1 1 1
     0.62429523     0.92926704     0.10000000 1 1 1
     0.63710917     0.94259354     0.10000000 1 1 1
     0.64992312     0.95592004     0.10000000 1 1 1
     0.66273706     0.96924654     0.10000000 1 1 1
     0.67555100     0.98257304     0.10000000 1 1 1
     0.68836494     0.99589954     0.10000000 1 1 1
     0.00973860     0.25012814     0.10000000 1 1 1
     0.02255254     0.26345464     0.10000000 1 1 1
     0.03536648     0.27678114     0.10000000 1 1 1
     0.04818042     0.29010764     0.10000000 1 1 1
     0.06099436     0.30343414     0.10000000 1 1 1
     0.07380830     0.31676064     0.10000000 1 1 1
     0.08662225     0.33008713     0.10000000 1 1 1
     0.09943619     0.34341363     0.10000000 1 1 1
     0.11225013     0.35674013     0.10000000 1 1 1
     0.12506407     0.37006663     0.10000000 1 1 1
     0.13787801     0.38339313     0.10000000 1 1 1
     0.15069195     0.39671963     0.10000000 1 1 1
     0.16350589     0.41004613     0.10000000 1 1 1
     0.17631984     0.42337263     0.10000000 1 1 1
     0.18913378     0.43669913     0.10000000 1 1 1
     0.20194772     0.45002563     0.10000000 1 1 1
     0.21476166     0.46335213     0.10000000 1 1 1
     0.22757560     0.47667863     0.10000000 1 1 1
     0.24038954     0.49000513     0.10000000 1 1 1
     0.25320349     0.50333162     0.10000000 1 1 1
     0.26601743     0.51665812     0.10000000 1 1 1
     0.27883137     0.52998462     0.10000000 1 1 1
     0.29164531     0.54331112     0.10000000 1 1 1
     0.30445925     0.55663762     0.10000000 1 1 1
     0.31727319     0.56996412     0.10000000 1 1 1
     0.33008713     0.58329062     0.10000000 1 1 1
     0.34290108     0.59661712     0.10000000 1 1 1
     0.35571502     0.60994362     0.10000000 1 1 1
     0.36852896     0.62327012     0.10000000 1 1 1
     0.38134290     0.63659662     0.10000000 1 1 1
     0.39415684     0.64992312     0.10000000 1 1 1
     0.40697078     0.66324962     0.10000000 1 1 1
     0.41978473     0.67657611     0.10000000 1 1 1
     0.43259867     0.68990261     0.10000000 1 1 1
     0.44541261     0.70322911     0.10000000 1 1 1
     0.45822655     0.71655561     0.10000000 1 1 1
     0.47104049     0.72988211     0.10000000 1 1 1
     0.48385443     0.74320861     0.10000000 1 1 1
     0.49666838     0.75653511     0.10000000 1 1 1
     0.50948232     0.76986161     0.10000000 1 1 1
     0.52229626     0.78318811     0.10000000 1 1 1
     0.53511020     0.79651461     0.10000000 1 1 1
     0.54792414     0.80984111     0.10000000 1 1 1
     0.56073808     0.82316761     0.10000000 1 1 1
     0.57355202     0.83649411     0.10000000 1 1 1
     0.58636597     0.84982060     0.10000000 1 1 1
     0.59917991     0.86314710     0.10000000 1 1 1
     0.61199385     0.87647360     0.10000000 1 1 1
     0.62480779     0.88980010     0.10000000 1 1 1
     0.63762173     0.90312660     0.10000000 1 1 1
     0.65043567     0.91645310     0.10000000 1 1 1
     0.66324962     0.92977960     0.10000000 1 1 1
     0.67606356     0.94310610     0.10000000 1 1 1
     0.68887750     0.95643260     0.10000000 1 1 1
     0.70169144     0.96975910     0.10000000 1 1 1
     0.71450538     0.98308560     0.10000000 1 1 1
     0.72731932     0.99641210     0.10000000 1 1 1