ATOMIC_SPECIES
C 6.000 /mnt/C_ONCV_PBE-1.0.upf

NUMERICAL_ORBITAL
/mnt/C_gga_8au_100Ry_2s2p1d.orb

LATTICE_CONSTANT
1.889716

LATTICE_VECTORS
       43.0412512926       23.4298849936       0.0000000000
       -14.3433077996       26.3489946936       0.0000000000
       21.5206206829       11.7149397949       42.4397442814

ATOMIC_POSITIONS
Direct

C
0.0
1588
     0.002518890     0.100000000     0.911838790 1 1 1
     0.030226700     0.100000000     0.942065490 1 1 1
     0.057934510     0.100000000     0.972292190 1 1 1
     0.005037780     0.100000000     0.823677580 1 1 1
     0.032745590     0.100000000     0.853904280 1 1 1
     0.060453400     0.100000000     0.884130980 1 1 1
     0.088161210     0.100000000     0.914357680 1 1 1
     0.115869020     0.100000000     0.944584380 1 1 1
     0.143576830     0.100000000     0.974811080 1 1 1
     0.007556680     0.100000000     0.735516370 1 1 1
     0.035264480     0.100000000     0.765743070 1 1 1
     0.062972290     0.100000000     0.795969770 1 1 1
     0.090680100     0.100000000     0.826196470 1 1 1
     0.118387910     0.100000000     0.856423170 1 1 1
     0.146095720     0.100000000     0.886649870 1 1 1
     0.173803530     0.100000000     0.916876570 1 1 1
     0.201511340     0.100000000     0.947103270 1 1 1
     0.229219140     0.100000000     0.977329970 1 1 1
     0.010075570     0.100000000     0.647355160 1 1 1
     0.037783380     0.100000000     0.677581860 1 1 1
     0.065491180     0.100000000     0.707808560 1 1 1
     0.093198990     0.100000000     0.738035260 1 1 1
     0.120906800     0.100000000     0.768261960 1 1 1
     0.148614610     0.100000000     0.798488660 1 1 1
     0.176322420     0.100000000     0.828715370 1 1 1
     0.204030230     0.100000000     0.858942070 1 1 1
     0.231738040     0.100000000     0.889168770 1 1 1
     0.259445840     0.100000000     0.919395470 1 1 1
     0.287153650     0.100000000     0.949622170 1 1 1
     0.314861460     0.100000000     0.979848870 1 1 1
     0.012594460     0.100000000     0.559193950 1 1 1
     0.040302270     0.100000000     0.589420650 1 1 1
     0.068010080     0.100000000     0.619647360 1 1 1
     0.095717880     0.100000000     0.649874060 1 1 1
     0.123425690     0.100000000     0.680100760 1 1 1
     0.151133500     0.100000000     0.710327460 1 1 1
     0.178841310     0.100000000     0.740554160 1 1 1
     0.206549120     0.100000000     0.770780860 1 1 1
     0.234256930     0.100000000     0.801007560 1 1 1
     0.261964740     0.100000000     0.831234260 1 1 1
     0.289672540     0.100000000     0.861460960 1 1 1
     0.317380350     0.100000000     0.891687660 1 1 1
     0.345088160     0.100000000     0.921914360 1 1 1
     0.372795970     0.100000000     0.952141060 1 1 1
     0.400503780     0.100000000     0.982367760 1 1 1
     0.015113350     0.100000000     0.471032750 1 1 1
     0.042821160     0.100000000     0.501259450 1 1 1
     0.070528970     0.100000000     0.531486150 1 1 1
     0.098236780     0.100000000     0.561712850 1 1 1
     0.125944580     0.100000000     0.591939550 1 1 1
     0.153652390     0.100000000     0.622166250 1 1 1
     0.181360200     0.100000000     0.652392950 1 1 1
     0.209068010     0.100000000     0.682619650 1 1 1
     0.236775820     0.100000000     0.712846350 1 1 1
     0.264483630     0.100000000     0.743073050 1 1 1
     0.292191440     0.100000000     0.773299750 1 1 1
     0.319899240     0.100000000     0.803526450 1 1 1
     0.347607050     0.100000000     0.833753150 1 1 1
     0.375314860     0.100000000     0.863979850 1 1 1
     0.403022670     0.100000000     0.894206550 1 1 1
     0.430730480     0.100000000     0.924433250 1 1 1
     0.458438290     0.100000000     0.954659950 1 1 1
     0.486146100     0.100000000     0.984886650 1 1 1
     0.017632240     0.100000000     0.382871540 1 1 1
     0.045340050     0.100000000     0.413098240 1 1 1
     0.073047860     0.100000000     0.443324940 1 1 1
     0.100755670     0.100000000     0.473551640 1 1 1
     0.128463480     0.100000000     0.503778340 1 1 1
     0.156171280     0.100000000     0.534005040 1 1 1
     0.183879090     0.100000000     0.564231740 1 1 1
     0.211586900     0.100000000     0.594458440 1 1 1
     0.239294710     0.100000000     0.624685140 1 1 1
     0.267002520     0.100000000     0.654911840 1 1 1
     0.294710330     0.100000000     0.685138540 1 1 1
     0.322418140     0.100000000     0.715365240 1 1 1
     0.350125940     0.100000000     0.745591940 1 1 1
     0.377833750     0.100000000     0.775818640 1 1 1
     0.405541560     0.100000000     0.806045340 1 1 1
     0.433249370     0.100000000     0.836272040 1 1 1
     0.460957180     0.100000000     0.866498740 1 1 1
     0.488664990     0.100000000     0.896725440 1 1 1
     0.516372800     0.100000000     0.926952140 1 1 1
     0.544080600     0.100000000     0.957178840 1 1 1
     0.571788410     0.100000000     0.987405540 1 1 1
     0.020151130     0.100000000     0.294710330 1 1 1
     0.047858940     0.100000000     0.324937030 1 1 1
     0.075566750     0.100000000     0.355163730 1 1 1
     0.103274560     0.100000000     0.385390430 1 1 1
     0.130982370     0.100000000     0.415617130 1 1 1
     0.158690180     0.100000000     0.445843830 1 1 1
     0.186397980     0.100000000     0.476070530 1 1 1
     0.214105790     0.100000000     0.506297230 1 1 1
     0.241813600     0.100000000     0.536523930 1 1 1
     0.269521410     0.100000000     0.566750630 1 1 1
     0.297229220     0.100000000     0.596977330 1 1 1
     0.324937030     0.100000000     0.627204030 1 1 1
     0.352644840     0.100000000     0.657430730 1 1 1
     0.380352640     0.100000000     0.687657430 1 1 1
     0.408060450     0.100000000     0.717884130 1 1 1
     0.435768260     0.100000000     0.748110830 1 1 1
     0.463476070     0.100000000     0.778337530 1 1 1
     0.491183880     0.100000000     0.808564230 1 1 1
     0.518891690     0.100000000     0.838790930 1 1 1
     0.546599500     0.100000000     0.869017630 1 1 1
     0.574307300     0.100000000     0.899244330 1 1 1
     0.602015110     0.100000000     0.929471030 1 1 1
     0.629722920     0.100000000     0.959697730 1 1 1
     0.657430730     0.100000000     0.989924430 1 1 1
     0.022670030     0.100000000     0.206549120 1 1 1
     0.050377830     0.100000000     0.236775820 1 1 1
     0.078085640     0.100000000     0.267002520 1 1 1
     0.105793450     0.100000000     0.297229220 1 1 1
     0.133501260     0.100000000     0.327455920 1 1 1
     0.161209070     0.100000000     0.357682620 1 1 1
     0.188916880     0.100000000     0.387909320 1 1 1
     0.216624690     0.100000000     0.418136020 1 1 1
     0.244332490     0.100000000     0.448362720 1 1 1
     0.272040300     0.100000000     0.478589420 1 1 1
     0.299748110     0.100000000     0.508816120 1 1 1
     0.327455920     0.100000000     0.539042820 1 1 1
     0.355163730     0.100000000     0.569269520 1 1 1
     0.382871540     0.100000000     0.599496220 1 1 1
     0.410579350     0.100000000     0.629722920 1 1 1
     0.438287150     0.100000000     0.659949620 1 1 1
     0.465994960     0.100000000     0.690176320 1 1 1
     0.493702770     0.100000000     0.720403020 1 1 1
     0.521410580     0.100000000     0.750629720 1 1 1
     0.549118390     0.100000000     0.780856420 1 1 1
     0.576826200     0.100000000     0.811083120 1 1 1
     0.604534010     0.100000000     0.841309820 1 1 1
     0.632241810     0.100000000     0.871536520 1 1 1
     0.659949620     0.100000000     0.901763220 1 1 1
     0.687657430     0.100000000     0.931989920 1 1 1
     0.715365240     0.100000000     0.962216620 1 1 1
     0.743073050     0.100000000     0.992443320 1 1 1
     0.025188920     0.100000000     0.118387910 1 1 1
     0.052896730     0.100000000     0.148614610 1 1 1
     0.080604530     0.100000000     0.178841310 1 1 1
     0.108312340     0.100000000     0.209068010 1 1 1
     0.136020150     0.100000000     0.239294710 1 1 1
     0.163727960     0.100000000     0.269521410 1 1 1
     0.191435770     0.100000000     0.299748110 1 1 1
     0.219143580     0.100000000     0.329974810 1 1 1
     0.246851390     0.100000000     0.360201510 1 1 1
     0.274559190     0.100000000     0.390428210 1 1 1
     0.302267000     0.100000000     0.420654910 1 1 1
     0.329974810     0.100000000     0.450881610 1 1 1
     0.357682620     0.100000000     0.481108310 1 1 1
     0.385390430     0.100000000     0.511335010 1 1 1
     0.413098240     0.100000000     0.541561710 1 1 1
     0.440806050     0.100000000     0.571788410 1 1 1
     0.468513850     0.100000000     0.602015110 1 1 1
     0.496221660     0.100000000     0.632241810 1 1 1
     0.523929470     0.100000000     0.662468510 1 1 1
     0.551637280     0.100000000     0.692695210 1 1 1
     0.579345090     0.100000000     0.722921910 1 1 1
     0.607052900     0.100000000     0.753148610 1 1 1
     0.634760710     0.100000000     0.783375310 1 1 1
     0.662468510     0.100000000     0.813602020 1 1 1
     0.690176320     0.100000000     0.843828720 1 1 1
     0.717884130     0.100000000     0.874055420 1 1 1
     0.745591940     0.100000000     0.904282120 1 1 1
     0.773299750     0.100000000     0.934508820 1 1 1
     0.801007560     0.100000000     0.964735520 1 1 1
     0.828715370     0.100000000     0.994962220 1 1 1
     0.000000000     0.100000000     0.000000000 1 1 1
     0.027707810     0.100000000     0.030226700 1 1 1
     0.055415620     0.100000000     0.060453400 1 1 1
     0.083123430     0.100000000     0.090680100 1 1 1
     0.110831230     0.100000000     0.120906800 1 1 1
     0.138539040     0.100000000     0.151133500 1 1 1
     0.166246850     0.100000000     0.181360200 1 1 1
     0.193954660     0.100000000     0.211586900 1 1 1
     0.221662470     0.100000000     0.241813600 1 1 1
     0.249370280     0.100000000     0.272040300 1 1 1
     0.277078090     0.100000000     0.302267000 1 1 1
     0.304785890     0.100000000     0.332493700 1 1 1
     0.332493700     0.100000000     0.362720400 1 1 1
     0.360201510     0.100000000     0.392947100 1 1 1
     0.387909320     0.100000000     0.423173800 1 1 1
     0.415617130     0.100000000     0.453400500 1 1 1
     0.443324940     0.100000000     0.483627200 1 1 1
     0.471032750     0.100000000     0.513853900 1 1 1
     0.498740550     0.100000000     0.544080600 1 1 1
     0.526448360     0.100000000     0.574307300 1 1 1
     0.554156170     0.100000000     0.604534010 1 1 1
     0.581863980     0.100000000     0.634760710 1 1 1
     0.609571790     0.100000000     0.664987410 1 1 1
     0.637279600     0.100000000     0.695214110 1 1 1
     0.664987410     0.100000000     0.725440810 1 1 1
     0.692695210     0.100000000     0.755667510 1 1 1
     0.720403020     0.100000000     0.785894210 1 1 1
     0.748110830     0.100000000     0.816120910 1 1 1
     0.775818640     0.100000000     0.846347610 1 1 1
     0.803526450     0.100000000     0.876574310 1 1 1
     0.831234260     0.100000000     0.906801010 1 1 1
     0.858942070     0.100000000     0.937027710 1 1 1
     0.886649870     0.100000000     0.967254410 1 1 1
     0.914357680     0.100000000     0.997481110 1 1 1
     0.085642320     0.100000000     0.002518890 1 1 1
     0.113350130     0.100000000     0.032745590 1 1 1
     0.141057930     0.100000000     0.062972290 1 1 1
     0.168765740     0.100000000     0.093198990 1 1 1
     0.196473550     0.100000000     0.123425690 1 1 1
     0.224181360     0.100000000     0.153652390 1 1 1
     0.251889170     0.100000000     0.183879090 1 1 1
     0.279596980     0.100000000     0.214105790 1 1 1
     0.307304790     0.100000000     0.244332490 1 1 1
     0.335012590     0.100000000     0.274559190 1 1 1
     0.362720400     0.100000000     0.304785890 1 1 1
     0.390428210     0.100000000     0.335012590 1 1 1
     0.418136020     0.100000000     0.365239290 1 1 1
     0.445843830     0.100000000     0.395465990 1 1 1
     0.473551640     0.100000000     0.425692700 1 1 1
     0.501259450     0.100000000     0.455919400 1 1 1
     0.528967250     0.100000000     0.486146100 1 1 1
     0.556675060     0.100000000     0.516372800 1 1 1
     0.584382870     0.100000000     0.546599500 1 1 1
     0.612090680     0.100000000     0.576826200 1 1 1
     0.639798490     0.100000000     0.607052900 1 1 1
     0.667506300     0.100000000     0.637279600 1 1 1
     0.695214110     0.100000000     0.667506300 1 1 1
     0.722921910     0.100000000     0.697733000 1 1 1
     0.750629720     0.100000000     0.727959700 1 1 1
     0.778337530     0.100000000     0.758186400 1 1 1
     0.806045340     0.100000000     0.788413100 1 1 1
     0.833753150     0.100000000     0.818639800 1 1 1
     0.861460960     0.100000000     0.848866500 1 1 1
     0.889168770     0.100000000     0.879093200 1 1 1
     0.916876570     0.100000000     0.909319900 1 1 1
     0.944584380     0.100000000     0.939546600 1 1 1
     0.972292190     0.100000000     0.969773300 1 1 1
     0.171284630     0.100000000     0.005037780 1 1 1
     0.198992440     0.100000000     0.035264480 1 1 1
     0.226700250     0.100000000     0.065491180 1 1 1
     0.254408060     0.100000000     0.095717880 1 1 1
     0.282115870     0.100000000     0.125944580 1 1 1
     0.309823680     0.100000000     0.156171280 1 1 1
     0.337531490     0.100000000     0.186397980 1 1 1
     0.365239290     0.100000000     0.216624690 1 1 1
     0.392947100     0.100000000     0.246851390 1 1 1
     0.420654910     0.100000000     0.277078090 1 1 1
     0.448362720     0.100000000     0.307304790 1 1 1
     0.476070530     0.100000000     0.337531490 1 1 1
     0.503778340     0.100000000     0.367758190 1 1 1
     0.531486150     0.100000000     0.397984890 1 1 1
     0.559193950     0.100000000     0.428211590 1 1 1
     0.586901760     0.100000000     0.458438290 1 1 1
     0.614609570     0.100000000     0.488664990 1 1 1
     0.642317380     0.100000000     0.518891690 1 1 1
     0.670025190     0.100000000     0.549118390 1 1 1
     0.697733000     0.100000000     0.579345090 1 1 1
     0.725440810     0.100000000     0.609571790 1 1 1
     0.753148610     0.100000000     0.639798490 1 1 1
     0.780856420     0.100000000     0.670025190 1 1 1
     0.808564230     0.100000000     0.700251890 1 1 1
     0.836272040     0.100000000     0.730478590 1 1 1
     0.863979850     0.100000000     0.760705290 1 1 1
     0.891687660     0.100000000     0.790931990 1 1 1
     0.919395470     0.100000000     0.821158690 1 1 1
     0.947103270     0.100000000     0.851385390 1 1 1
     0.974811080     0.100000000     0.881612090 1 1 1
     0.256926950     0.100000000     0.007556680 1 1 1
     0.284634760     0.100000000     0.037783380 1 1 1
     0.312342570     0.100000000     0.068010080 1 1 1
     0.340050380     0.100000000     0.098236780 1 1 1
     0.367758190     0.100000000     0.128463480 1 1 1
     0.395465990     0.100000000     0.158690180 1 1 1
     0.423173800     0.100000000     0.188916880 1 1 1
     0.450881610     0.100000000     0.219143580 1 1 1
     0.478589420     0.100000000     0.249370280 1 1 1
     0.506297230     0.100000000     0.279596980 1 1 1
     0.534005040     0.100000000     0.309823680 1 1 1
     0.561712850     0.100000000     0.340050380 1 1 1
     0.589420650     0.100000000     0.370277080 1 1 1
     0.617128460     0.100000000     0.400503780 1 1 1
     0.644836270     0.100000000     0.430730480 1 1 1
     0.672544080     0.100000000     0.460957180 1 1 1
     0.700251890     0.100000000     0.491183880 1 1 1
     0.727959700     0.100000000     0.521410580 1 1 1
     0.755667510     0.100000000     0.551637280 1 1 1
     0.783375310     0.100000000     0.581863980 1 1 1
     0.811083120     0.100000000     0.612090680 1 1 1
     0.838790930     0.100000000     0.642317380 1 1 1
     0.866498740     0.100000000     0.672544080 1 1 1
     0.894206550     0.100000000     0.702770780 1 1 1
     0.921914360     0.100000000     0.732997480 1 1 1
     0.949622170     0.100000000     0.763224180 1 1 1
     0.977329970     0.100000000     0.793450880 1 1 1
     0.342569270     0.100000000     0.010075570 1 1 1
     0.370277080     0.100000000     0.040302270 1 1 1
     0.397984890     0.100000000     0.070528970 1 1 1
     0.425692700     0.100000000     0.100755670 1 1 1
     0.453400500     0.100000000     0.130982370 1 1 1
     0.481108310     0.100000000     0.161209070 1 1 1
     0.508816120     0.100000000     0.191435770 1 1 1
     0.536523930     0.100000000     0.221662470 1 1 1
     0.564231740     0.100000000     0.251889170 1 1 1
     0.591939550     0.100000000     0.282115870 1 1 1
     0.619647360     0.100000000     0.312342570 1 1 1
     0.647355160     0.100000000     0.342569270 1 1 1
     0.675062970     0.100000000     0.372795970 1 1 1
     0.702770780     0.100000000     0.403022670 1 1 1
     0.730478590     0.100000000     0.433249370 1 1 1
     0.758186400     0.100000000     0.463476070 1 1 1
     0.785894210     0.100000000     0.493702770 1 1 1
     0.813602020     0.100000000     0.523929470 1 1 1
     0.841309820     0.100000000     0.554156170 1 1 1
     0.869017630     0.100000000     0.584382870 1 1 1
     0.896725440     0.100000000     0.614609570 1 1 1
     0.924433250     0.100000000     0.644836270 1 1 1
     0.952141060     0.100000000     0.675062970 1 1 1
     0.979848870     0.100000000     0.705289670 1 1 1
     0.428211590     0.100000000     0.012594460 1 1 1
     0.455919400     0.100000000     0.042821160 1 1 1
     0.483627200     0.100000000     0.073047860 1 1 1
     0.511335010     0.100000000     0.103274560 1 1 1
     0.539042820     0.100000000     0.133501260 1 1 1
     0.566750630     0.100000000     0.163727960 1 1 1
     0.594458440     0.100000000     0.193954660 1 1 1
     0.622166250     0.100000000     0.224181360 1 1 1
     0.649874060     0.100000000     0.254408060 1 1 1
     0.677581860     0.100000000     0.284634760 1 1 1
     0.705289670     0.100000000     0.314861460 1 1 1
     0.732997480     0.100000000     0.345088160 1 1 1
     0.760705290     0.100000000     0.375314860 1 1 1
     0.788413100     0.100000000     0.405541560 1 1 1
     0.816120910     0.100000000     0.435768260 1 1 1
     0.843828720     0.100000000     0.465994960 1 1 1
     0.871536520     0.100000000     0.496221660 1 1 1
     0.899244330     0.100000000     0.526448360 1 1 1
     0.926952140     0.100000000     0.556675060 1 1 1
     0.954659950     0.100000000     0.586901760 1 1 1
     0.982367760     0.100000000     0.617128460 1 1 1
     0.513853900     0.100000000     0.015113350 1 1 1
     0.541561710     0.100000000     0.045340050 1 1 1
     0.569269520     0.100000000     0.075566750 1 1 1
     0.596977330     0.100000000     0.105793450 1 1 1
     0.624685140     0.100000000     0.136020150 1 1 1
     0.652392950     0.100000000     0.166246850 1 1 1
     0.680100760     0.100000000     0.196473550 1 1 1
     0.707808560     0.100000000     0.226700250 1 1 1
     0.735516370     0.100000000     0.256926950 1 1 1
     0.763224180     0.100000000     0.287153650 1 1 1
     0.790931990     0.100000000     0.317380350 1 1 1
     0.818639800     0.100000000     0.347607050 1 1 1
     0.846347610     0.100000000     0.377833750 1 1 1
     0.874055420     0.100000000     0.408060450 1 1 1
     0.901763220     0.100000000     0.438287150 1 1 1
     0.929471030     0.100000000     0.468513850 1 1 1
     0.957178840     0.100000000     0.498740550 1 1 1
     0.984886650     0.100000000     0.528967250 1 1 1
     0.599496220     0.100000000     0.017632240 1 1 1
     0.627204030     0.100000000     0.047858940 1 1 1
     0.654911840     0.100000000     0.078085640 1 1 1
     0.682619650     0.100000000     0.108312340 1 1 1
     0.710327460     0.100000000     0.138539040 1 1 1
     0.738035260     0.100000000     0.168765740 1 1 1
     0.765743070     0.100000000     0.198992440 1 1 1
     0.793450880     0.100000000     0.229219140 1 1 1
     0.821158690     0.100000000     0.259445840 1 1 1
     0.848866500     0.100000000     0.289672540 1 1 1
     0.876574310     0.100000000     0.319899240 1 1 1
     0.904282120     0.100000000     0.350125940 1 1 1
     0.931989920     0.100000000     0.380352640 1 1 1
     0.959697730     0.100000000     0.410579350 1 1 1
     0.987405540     0.100000000     0.440806050 1 1 1
     0.685138540     0.100000000     0.020151130 1 1 1
     0.712846350     0.100000000     0.050377830 1 1 1
     0.740554160     0.100000000     0.080604530 1 1 1
     0.768261960     0.100000000     0.110831230 1 1 1
     0.795969770     0.100000000     0.141057930 1 1 1
     0.823677580     0.100000000     0.171284630 1 1 1
     0.851385390     0.100000000     0.201511340 1 1 1
     0.879093200     0.100000000     0.231738040 1 1 1
     0.906801010     0.100000000     0.261964740 1 1 1
     0.934508820     0.100000000     0.292191440 1 1 1
     0.962216620     0.100000000     0.322418140 1 1 1
     0.989924430     0.100000000     0.352644840 1 1 1
     0.770780860     0.100000000     0.022670030 1 1 1
     0.798488660     0.100000000     0.052896730 1 1 1
     0.826196470     0.100000000     0.083123430 1 1 1
     0.853904280     0.100000000     0.113350130 1 1 1
     0.881612090     0.100000000     0.143576830 1 1 1
     0.909319900     0.100000000     0.173803530 1 1 1
     0.937027710     0.100000000     0.204030230 1 1 1
     0.964735520     0.100000000     0.234256930 1 1 1
     0.992443320     0.100000000     0.264483630 1 1 1
     0.856423170     0.100000000     0.025188920 1 1 1
     0.884130980     0.100000000     0.055415620 1 1 1
     0.911838790     0.100000000     0.085642320 1 1 1
     0.939546600     0.100000000     0.115869020 1 1 1
     0.967254410     0.100000000     0.146095720 1 1 1
     0.994962220     0.100000000     0.176322420 1 1 1
     0.942065490     0.100000000     0.027707810 1 1 1
     0.969773300     0.100000000     0.057934510 1 1 1
     0.997481110     0.100000000     0.088161210 1 1 1
     0.059613770     0.100000000     0.913518050 1 1 1
     0.087321580     0.100000000     0.943744750 1 1 1
     0.115029390     0.100000000     0.973971450 1 1 1
     0.062132660     0.100000000     0.825356840 1 1 1
     0.089840470     0.100000000     0.855583540 1 1 1
     0.117548280     0.100000000     0.885810240 1 1 1
     0.145256090     0.100000000     0.916036940 1 1 1
     0.172963900     0.100000000     0.946263640 1 1 1
     0.200671700     0.100000000     0.976490340 1 1 1
     0.064651550     0.100000000     0.737195630 1 1 1
     0.092359360     0.100000000     0.767422330 1 1 1
     0.120067170     0.100000000     0.797649030 1 1 1
     0.147774980     0.100000000     0.827875730 1 1 1
     0.175482790     0.100000000     0.858102430 1 1 1
     0.203190600     0.100000000     0.888329130 1 1 1
     0.230898400     0.100000000     0.918555830 1 1 1
     0.258606210     0.100000000     0.948782530 1 1 1
     0.286314020     0.100000000     0.979009230 1 1 1
     0.067170450     0.100000000     0.649034420 1 1 1
     0.094878250     0.100000000     0.679261120 1 1 1
     0.122586060     0.100000000     0.709487820 1 1 1
     0.150293870     0.100000000     0.739714520 1 1 1
     0.178001680     0.100000000     0.769941220 1 1 1
     0.205709490     0.100000000     0.800167920 1 1 1
     0.233417300     0.100000000     0.830394620 1 1 1
     0.261125110     0.100000000     0.860621320 1 1 1
     0.288832910     0.100000000     0.890848030 1 1 1
     0.316540720     0.100000000     0.921074730 1 1 1
     0.344248530     0.100000000     0.951301430 1 1 1
     0.371956340     0.100000000     0.981528130 1 1 1
     0.069689340     0.100000000     0.560873210 1 1 1
     0.097397150     0.100000000     0.591099910 1 1 1
     0.125104950     0.100000000     0.621326610 1 1 1
     0.152812760     0.100000000     0.651553310 1 1 1
     0.180520570     0.100000000     0.681780020 1 1 1
     0.208228380     0.100000000     0.712006720 1 1 1
     0.235936190     0.100000000     0.742233420 1 1 1
     0.263644000     0.100000000     0.772460120 1 1 1
     0.291351810     0.100000000     0.802686820 1 1 1
     0.319059610     0.100000000     0.832913520 1 1 1
     0.346767420     0.100000000     0.863140220 1 1 1
     0.374475230     0.100000000     0.893366920 1 1 1
     0.402183040     0.100000000     0.923593620 1 1 1
     0.429890850     0.100000000     0.953820320 1 1 1
     0.457598660     0.100000000     0.984047020 1 1 1
     0.072208230     0.100000000     0.472712000 1 1 1
     0.099916040     0.100000000     0.502938710 1 1 1
     0.127623850     0.100000000     0.533165410 1 1 1
     0.155331650     0.100000000     0.563392110 1 1 1
     0.183039460     0.100000000     0.593618810 1 1 1
     0.210747270     0.100000000     0.623845510 1 1 1
     0.238455080     0.100000000     0.654072210 1 1 1
     0.266162890     0.100000000     0.684298910 1 1 1
     0.293870700     0.100000000     0.714525610 1 1 1
     0.321578510     0.100000000     0.744752310 1 1 1
     0.349286310     0.100000000     0.774979010 1 1 1
     0.376994120     0.100000000     0.805205710 1 1 1
     0.404701930     0.100000000     0.835432410 1 1 1
     0.432409740     0.100000000     0.865659110 1 1 1
     0.460117550     0.100000000     0.895885810 1 1 1
     0.487825360     0.100000000     0.926112510 1 1 1
     0.515533170     0.100000000     0.956339210 1 1 1
     0.543240970     0.100000000     0.986565910 1 1 1
     0.074727120     0.100000000     0.384550800 1 1 1
     0.102434930     0.100000000     0.414777500 1 1 1
     0.130142740     0.100000000     0.445004200 1 1 1
     0.157850550     0.100000000     0.475230900 1 1 1
     0.185558350     0.100000000     0.505457600 1 1 1
     0.213266160     0.100000000     0.535684300 1 1 1
     0.240973970     0.100000000     0.565911000 1 1 1
     0.268681780     0.100000000     0.596137700 1 1 1
     0.296389590     0.100000000     0.626364400 1 1 1
     0.324097400     0.100000000     0.656591100 1 1 1
     0.351805210     0.100000000     0.686817800 1 1 1
     0.379513010     0.100000000     0.717044500 1 1 1
     0.407220820     0.100000000     0.747271200 1 1 1
     0.434928630     0.100000000     0.777497900 1 1 1
     0.462636440     0.100000000     0.807724600 1 1 1
     0.490344250     0.100000000     0.837951300 1 1 1
     0.518052060     0.100000000     0.868178000 1 1 1
     0.545759870     0.100000000     0.898404700 1 1 1
     0.573467670     0.100000000     0.928631400 1 1 1
     0.601175480     0.100000000     0.958858100 1 1 1
     0.628883290     0.100000000     0.989084800 1 1 1
     0.077246010     0.100000000     0.296389590 1 1 1
     0.104953820     0.100000000     0.326616290 1 1 1
     0.132661630     0.100000000     0.356842990 1 1 1
     0.160369440     0.100000000     0.387069690 1 1 1
     0.188077250     0.100000000     0.417296390 1 1 1
     0.215785050     0.100000000     0.447523090 1 1 1
     0.243492860     0.100000000     0.477749790 1 1 1
     0.271200670     0.100000000     0.507976490 1 1 1
     0.298908480     0.100000000     0.538203190 1 1 1
     0.326616290     0.100000000     0.568429890 1 1 1
     0.354324100     0.100000000     0.598656590 1 1 1
     0.382031910     0.100000000     0.628883290 1 1 1
     0.409739710     0.100000000     0.659109990 1 1 1
     0.437447520     0.100000000     0.689336690 1 1 1
     0.465155330     0.100000000     0.719563390 1 1 1
     0.492863140     0.100000000     0.749790090 1 1 1
     0.520570950     0.100000000     0.780016790 1 1 1
     0.548278760     0.100000000     0.810243490 1 1 1
     0.575986570     0.100000000     0.840470190 1 1 1
     0.603694370     0.100000000     0.870696890 1 1 1
     0.631402180     0.100000000     0.900923590 1 1 1
     0.659109990     0.100000000     0.931150290 1 1 1
     0.686817800     0.100000000     0.961376990 1 1 1
     0.714525610     0.100000000     0.991603690 1 1 1
     0.079764900     0.100000000     0.208228380 1 1 1
     0.107472710     0.100000000     0.238455080 1 1 1
     0.135180520     0.100000000     0.268681780 1 1 1
     0.162888330     0.100000000     0.298908480 1 1 1
     0.190596140     0.100000000     0.329135180 1 1 1
     0.218303950     0.100000000     0.359361880 1 1 1
     0.246011750     0.100000000     0.389588580 1 1 1
     0.273719560     0.100000000     0.419815280 1 1 1
     0.301427370     0.100000000     0.450041980 1 1 1
     0.329135180     0.100000000     0.480268680 1 1 1
     0.356842990     0.100000000     0.510495380 1 1 1
     0.384550800     0.100000000     0.540722080 1 1 1
     0.412258610     0.100000000     0.570948780 1 1 1
     0.439966410     0.100000000     0.601175480 1 1 1
     0.467674220     0.100000000     0.631402180 1 1 1
     0.495382030     0.100000000     0.661628880 1 1 1
     0.523089840     0.100000000     0.691855580 1 1 1
     0.550797650     0.100000000     0.722082280 1 1 1
     0.578505460     0.100000000     0.752308980 1 1 1
     0.606213270     0.100000000     0.782535680 1 1 1
     0.633921070     0.100000000     0.812762380 1 1 1
     0.661628880     0.100000000     0.842989080 1 1 1
     0.689336690     0.100000000     0.873215780 1 1 1
     0.717044500     0.100000000     0.903442480 1 1 1
     0.744752310     0.100000000     0.933669180 1 1 1
     0.772460120     0.100000000     0.963895880 1 1 1
     0.800167930     0.100000000     0.994122580 1 1 1
     0.082283800     0.100000000     0.120067170 1 1 1
     0.109991600     0.100000000     0.150293870 1 1 1
     0.137699410     0.100000000     0.180520570 1 1 1
     0.165407220     0.100000000     0.210747270 1 1 1
     0.193115030     0.100000000     0.240973970 1 1 1
     0.220822840     0.100000000     0.271200670 1 1 1