ATOMIC_SPECIES
C 6.000 /mnt/C_ONCV_PBE-1.0.upf

NUMERICAL_ORBITAL
/mnt/C_gga_8au_100Ry_2s2p1d.orb

LATTICE_CONSTANT
1.889716

LATTICE_VECTORS
       6.1487501551       2.1299895337       0.0000000000
       -9.8198050581       28.3473354766       0.0000000000
       3.0743750775       1.0649947669       5.6354226028

ATOMIC_POSITIONS
Direct

C
0.0
28
     0.000000000     0.100000000     0.000000000 1 1 1
     0.142857140     0.100000000     0.285714290 1 1 1
     0.285714290     0.100000000     0.571428570 1 1 1
     0.428571430     0.100000000     0.857142860 1 1 1
     0.571428570     0.100000000     0.142857140 1 1 1
     0.714285710     0.100000000     0.428571430 1 1 1
     0.857142860     0.100000000     0.714285710 1 1 1
     0.380952380     0.100000000     0.095238080 1 1 1
     0.523809530     0.100000000     0.380952370 1 1 1
     0.666666670     0.100000000     0.666666650 1 1 1
     0.809523810     0.100000000     0.952380940 1 1 1
     0.952380960     0.100000000     0.238095220 1 1 1
     0.095238100     0.100000000     0.523809510 1 1 1
     0.238095240     0.100000000     0.809523800 1 1 1
     0.142857140     0.213613330     0.571428570 1 1 1
     0.428571430     0.213613330     0.714285710 1 1 1
     0.714285710     0.213613330     0.857142860 1 1 1
     0.000000000     0.213613330     0.000000000 1 1 1
     0.285714290     0.213613330     0.142857140 1 1 1
     0.571428570     0.213613330     0.285714290 1 1 1
     0.857142860     0.213613330     0.428571430 1 1 1
     0.619047620     0.213613330     0.476190460 1 1 1
     0.904761900     0.213613330     0.619047610 1 1 1
     0.190476190     0.213613330     0.761904750 1 1 1
     0.476190470     0.213613330     0.904761890 1 1 1
     0.761904760     0.213613330     0.047619040 1 1 1
     0.047619050     0.213613330     0.190476180 1 1 1
     0.333333330     0.213613330     0.333333320 1 1 1
