ATOMIC_SPECIES
C 6.000 ./C_ONCV_PBE-1.0.upf

NUMERICAL_ORBITAL
./C_gga_8au_100Ry_2s2p1d.orb

LATTICE_CONSTANT
1.889716

LATTICE_VECTORS
       83.62300000       46.85976857       0.00000000
       1.22975000       95.84952663       0.00000000
       0.00000000       0.00000000       30.00000000

ATOMIC_POSITIONS
Direct

C
0.0
6076
     0.00065833     0.95523371     0.10000000 1 1 1
     0.01514154     0.97037525     0.10000000 1 1 1
     0.02962475     0.98551679     0.10000000 1 1 1
     0.00131666     0.91046741     0.10000000 1 1 1
     0.01579987     0.92560895     0.10000000 1 1 1
     0.03028308     0.94075049     0.10000000 1 1 1
     0.04476629     0.95589203     0.10000000 1 1 1
     0.05924951     0.97103357     0.10000000 1 1 1
     0.07373272     0.98617512     0.10000000 1 1 1
     0.00197498     0.86570112     0.10000000 1 1 1
     0.01645820     0.88084266     0.10000000 1 1 1
     0.03094141     0.89598420     0.10000000 1 1 1
     0.04542462     0.91112574     0.10000000 1 1 1
     0.05990783     0.92626728     0.10000000 1 1 1
     0.07439105     0.94140882     0.10000000 1 1 1
     0.08887426     0.95655036     0.10000000 1 1 1
     0.10335747     0.97169190     0.10000000 1 1 1
     0.11784068     0.98683344     0.10000000 1 1 1
     0.00263331     0.82093483     0.10000000 1 1 1
     0.01711652     0.83607637     0.10000000 1 1 1
     0.03159974     0.85121791     0.10000000 1 1 1
     0.04608295     0.86635945     0.10000000 1 1 1
     0.06056616     0.88150099     0.10000000 1 1 1
     0.07504937     0.89664253     0.10000000 1 1 1
     0.08953259     0.91178407     0.10000000 1 1 1
     0.10401580     0.92692561     0.10000000 1 1 1
     0.11849901     0.94206715     0.10000000 1 1 1
     0.13298223     0.95720869     0.10000000 1 1 1
     0.14746544     0.97235023     0.10000000 1 1 1
     0.16194865     0.98749177     0.10000000 1 1 1
     0.00329164     0.77616853     0.10000000 1 1 1
     0.01777485     0.79131007     0.10000000 1 1 1
     0.03225806     0.80645161     0.10000000 1 1 1
     0.04674128     0.82159315     0.10000000 1 1 1
     0.06122449     0.83673469     0.10000000 1 1 1
     0.07570770     0.85187623     0.10000000 1 1 1
     0.09019092     0.86701777     0.10000000 1 1 1
     0.10467413     0.88215932     0.10000000 1 1 1
     0.11915734     0.89730086     0.10000000 1 1 1
     0.13364055     0.91244240     0.10000000 1 1 1
     0.14812377     0.92758394     0.10000000 1 1 1
     0.16260698     0.94272548     0.10000000 1 1 1
     0.17709019     0.95786702     0.10000000 1 1 1
     0.19157340     0.97300856     0.10000000 1 1 1
     0.20605662     0.98815010     0.10000000 1 1 1
     0.00394997     0.73140224     0.10000000 1 1 1
     0.01843318     0.74654378     0.10000000 1 1 1
     0.03291639     0.76168532     0.10000000 1 1 1
     0.04739961     0.77682686     0.10000000 1 1 1
     0.06188282     0.79196840     0.10000000 1 1 1
     0.07636603     0.80710994     0.10000000 1 1 1
     0.09084924     0.82225148     0.10000000 1 1 1
     0.10533246     0.83739302     0.10000000 1 1 1
     0.11981567     0.85253456     0.10000000 1 1 1
     0.13429888     0.86767610     0.10000000 1 1 1
     0.14878209     0.88281764     0.10000000 1 1 1
     0.16326531     0.89795918     0.10000000 1 1 1
     0.17774852     0.91310072     0.10000000 1 1 1
     0.19223173     0.92824226     0.10000000 1 1 1
     0.20671494     0.94338381     0.10000000 1 1 1
     0.22119816     0.95852535     0.10000000 1 1 1
     0.23568137     0.97366689     0.10000000 1 1 1
     0.25016458     0.98880843     0.10000000 1 1 1
     0.00460829     0.68663594     0.10000000 1 1 1
     0.01909151     0.70177749     0.10000000 1 1 1
     0.03357472     0.71691903     0.10000000 1 1 1
     0.04805793     0.73206057     0.10000000 1 1 1
     0.06254115     0.74720211     0.10000000 1 1 1
     0.07702436     0.76234365     0.10000000 1 1 1
     0.09150757     0.77748519     0.10000000 1 1 1
     0.10599078     0.79262673     0.10000000 1 1 1
     0.12047400     0.80776827     0.10000000 1 1 1
     0.13495721     0.82290981     0.10000000 1 1 1
     0.14944042     0.83805135     0.10000000 1 1 1
     0.16392363     0.85319289     0.10000000 1 1 1
     0.17840685     0.86833443     0.10000000 1 1 1
     0.19289006     0.88347597     0.10000000 1 1 1
     0.20737327     0.89861751     0.10000000 1 1 1
     0.22185648     0.91375905     0.10000000 1 1 1
     0.23633970     0.92890059     0.10000000 1 1 1
     0.25082291     0.94404213     0.10000000 1 1 1
     0.26530612     0.95918367     0.10000000 1 1 1
     0.27978934     0.97432521     0.10000000 1 1 1
     0.29427255     0.98946675     0.10000000 1 1 1
     0.00526662     0.64186965     0.10000000 1 1 1
     0.01974984     0.65701119     0.10000000 1 1 1
     0.03423305     0.67215273     0.10000000 1 1 1
     0.04871626     0.68729427     0.10000000 1 1 1
     0.06319947     0.70243581     0.10000000 1 1 1
     0.07768269     0.71757735     0.10000000 1 1 1
     0.09216590     0.73271889     0.10000000 1 1 1
     0.10664911     0.74786043     0.10000000 1 1 1
     0.12113232     0.76300197     0.10000000 1 1 1
     0.13561554     0.77814352     0.10000000 1 1 1
     0.15009875     0.79328506     0.10000000 1 1 1
     0.16458196     0.80842660     0.10000000 1 1 1
     0.17906517     0.82356814     0.10000000 1 1 1
     0.19354839     0.83870968     0.10000000 1 1 1
     0.20803160     0.85385122     0.10000000 1 1 1
     0.22251481     0.86899276     0.10000000 1 1 1
     0.23699803     0.88413430     0.10000000 1 1 1
     0.25148124     0.89927584     0.10000000 1 1 1
     0.26596445     0.91441738     0.10000000 1 1 1
     0.28044766     0.92955892     0.10000000 1 1 1
     0.29493088     0.94470046     0.10000000 1 1 1
     0.30941409     0.95984200     0.10000000 1 1 1
     0.32389730     0.97498354     0.10000000 1 1 1
     0.33838051     0.99012508     0.10000000 1 1 1
     0.00592495     0.59710336     0.10000000 1 1 1
     0.02040816     0.61224490     0.10000000 1 1 1
     0.03489138     0.62738644     0.10000000 1 1 1
     0.04937459     0.64252798     0.10000000 1 1 1
     0.06385780     0.65766952     0.10000000 1 1 1
     0.07834101     0.67281106     0.10000000 1 1 1
     0.09282423     0.68795260     0.10000000 1 1 1
     0.10730744     0.70309414     0.10000000 1 1 1
     0.12179065     0.71823568     0.10000000 1 1 1
     0.13627386     0.73337722     0.10000000 1 1 1
     0.15075708     0.74851876     0.10000000 1 1 1
     0.16524029     0.76366030     0.10000000 1 1 1
     0.17972350     0.77880184     0.10000000 1 1 1
     0.19420671     0.79394338     0.10000000 1 1 1
     0.20868993     0.80908492     0.10000000 1 1 1
     0.22317314     0.82422646     0.10000000 1 1 1
     0.23765635     0.83936801     0.10000000 1 1 1
     0.25213957     0.85450955     0.10000000 1 1 1
     0.26662278     0.86965109     0.10000000 1 1 1
     0.28110599     0.88479263     0.10000000 1 1 1
     0.29558920     0.89993417     0.10000000 1 1 1
     0.31007242     0.91507571     0.10000000 1 1 1
     0.32455563     0.93021725     0.10000000 1 1 1
     0.33903884     0.94535879     0.10000000 1 1 1
     0.35352205     0.96050033     0.10000000 1 1 1
     0.36800527     0.97564187     0.10000000 1 1 1
     0.38248848     0.99078341     0.10000000 1 1 1
     0.00658328     0.55233706     0.10000000 1 1 1
     0.02106649     0.56747860     0.10000000 1 1 1
     0.03554970     0.58262014     0.10000000 1 1 1
     0.05003292     0.59776169     0.10000000 1 1 1
     0.06451613     0.61290323     0.10000000 1 1 1
     0.07899934     0.62804477     0.10000000 1 1 1
     0.09348255     0.64318631     0.10000000 1 1 1
     0.10796577     0.65832785     0.10000000 1 1 1
     0.12244898     0.67346939     0.10000000 1 1 1
     0.13693219     0.68861093     0.10000000 1 1 1
     0.15141540     0.70375247     0.10000000 1 1 1
     0.16589862     0.71889401     0.10000000 1 1 1
     0.18038183     0.73403555     0.10000000 1 1 1
     0.19486504     0.74917709     0.10000000 1 1 1
     0.20934826     0.76431863     0.10000000 1 1 1
     0.22383147     0.77946017     0.10000000 1 1 1
     0.23831468     0.79460171     0.10000000 1 1 1
     0.25279789     0.80974325     0.10000000 1 1 1
     0.26728111     0.82488479     0.10000000 1 1 1
     0.28176432     0.84002633     0.10000000 1 1 1
     0.29624753     0.85516787     0.10000000 1 1 1
     0.31073074     0.87030941     0.10000000 1 1 1
     0.32521396     0.88545095     0.10000000 1 1 1
     0.33969717     0.90059250     0.10000000 1 1 1
     0.35418038     0.91573404     0.10000000 1 1 1
     0.36866359     0.93087558     0.10000000 1 1 1
     0.38314681     0.94601712     0.10000000 1 1 1
     0.39763002     0.96115866     0.10000000 1 1 1
     0.41211323     0.97630020     0.10000000 1 1 1
     0.42659645     0.99144174     0.10000000 1 1 1
     0.00724161     0.50757077     0.10000000 1 1 1
     0.02172482     0.52271231     0.10000000 1 1 1
     0.03620803     0.53785385     0.10000000 1 1 1
     0.05069124     0.55299539     0.10000000 1 1 1
     0.06517446     0.56813693     0.10000000 1 1 1
     0.07965767     0.58327847     0.10000000 1 1 1
     0.09414088     0.59842001     0.10000000 1 1 1
     0.10862409     0.61356155     0.10000000 1 1 1
     0.12310731     0.62870309     0.10000000 1 1 1
     0.13759052     0.64384463     0.10000000 1 1 1
     0.15207373     0.65898618     0.10000000 1 1 1
     0.16655695     0.67412772     0.10000000 1 1 1
     0.18104016     0.68926926     0.10000000 1 1 1
     0.19552337     0.70441080     0.10000000 1 1 1
     0.21000658     0.71955234     0.10000000 1 1 1
     0.22448980     0.73469388     0.10000000 1 1 1
     0.23897301     0.74983542     0.10000000 1 1 1
     0.25345622     0.76497696     0.10000000 1 1 1
     0.26793943     0.78011850     0.10000000 1 1 1
     0.28242265     0.79526004     0.10000000 1 1 1
     0.29690586     0.81040158     0.10000000 1 1 1
     0.31138907     0.82554312     0.10000000 1 1 1
     0.32587228     0.84068466     0.10000000 1 1 1
     0.34035550     0.85582620     0.10000000 1 1 1
     0.35483871     0.87096774     0.10000000 1 1 1
     0.36932192     0.88610928     0.10000000 1 1 1
     0.38380513     0.90125082     0.10000000 1 1 1
     0.39828835     0.91639236     0.10000000 1 1 1
     0.41277156     0.93153390     0.10000000 1 1 1
     0.42725477     0.94667544     0.10000000 1 1 1
     0.44173799     0.96181698     0.10000000 1 1 1
     0.45622120     0.97695853     0.10000000 1 1 1
     0.47070441     0.99210007     0.10000000 1 1 1
     0.00789993     0.46280448     0.10000000 1 1 1
     0.02238315     0.47794602     0.10000000 1 1 1
     0.03686636     0.49308756     0.10000000 1 1 1
     0.05134957     0.50822910     0.10000000 1 1 1
     0.06583278     0.52337064     0.10000000 1 1 1
     0.08031600     0.53851218     0.10000000 1 1 1
     0.09479921     0.55365372     0.10000000 1 1 1
     0.10928242     0.56879526     0.10000000 1 1 1
     0.12376564     0.58393680     0.10000000 1 1 1
     0.13824885     0.59907834     0.10000000 1 1 1
     0.15273206     0.61421988     0.10000000 1 1 1
     0.16721527     0.62936142     0.10000000 1 1 1
     0.18169849     0.64450296     0.10000000 1 1 1
     0.19618170     0.65964450     0.10000000 1 1 1
     0.21066491     0.67478604     0.10000000 1 1 1
     0.22514812     0.68992758     0.10000000 1 1 1
     0.23963134     0.70506912     0.10000000 1 1 1
     0.25411455     0.72021066     0.10000000 1 1 1
     0.26859776     0.73535221     0.10000000 1 1 1
     0.28308097     0.75049375     0.10000000 1 1 1
     0.29756419     0.76563529     0.10000000 1 1 1
     0.31204740     0.78077683     0.10000000 1 1 1
     0.32653061     0.79591837     0.10000000 1 1 1
     0.34101382     0.81105991     0.10000000 1 1 1
     0.35549704     0.82620145     0.10000000 1 1 1
     0.36998025     0.84134299     0.10000000 1 1 1
     0.38446346     0.85648453     0.10000000 1 1 1
     0.39894668     0.87162607     0.10000000 1 1 1
     0.41342989     0.88676761     0.10000000 1 1 1
     0.42791310     0.90190915     0.10000000 1 1 1
     0.44239631     0.91705069     0.10000000 1 1 1
     0.45687953     0.93219223     0.10000000 1 1 1
     0.47136274     0.94733377     0.10000000 1 1 1
     0.48584595     0.96247531     0.10000000 1 1 1
     0.50032916     0.97761685     0.10000000 1 1 1
     0.51481238     0.99275839     0.10000000 1 1 1
     0.00855826     0.41803818     0.10000000 1 1 1
     0.02304147     0.43317972     0.10000000 1 1 1
     0.03752469     0.44832126     0.10000000 1 1 1
     0.05200790     0.46346280     0.10000000 1 1 1
     0.06649111     0.47860434     0.10000000 1 1 1
     0.08097433     0.49374589     0.10000000 1 1 1
     0.09545754     0.50888743     0.10000000 1 1 1
     0.10994075     0.52402897     0.10000000 1 1 1
     0.12442396     0.53917051     0.10000000 1 1 1
     0.13890718     0.55431205     0.10000000 1 1 1
     0.15339039     0.56945359     0.10000000 1 1 1
     0.16787360     0.58459513     0.10000000 1 1 1
     0.18235681     0.59973667     0.10000000 1 1 1
     0.19684003     0.61487821     0.10000000 1 1 1
     0.21132324     0.63001975     0.10000000 1 1 1
     0.22580645     0.64516129     0.10000000 1 1 1
     0.24028966     0.66030283     0.10000000 1 1 1
     0.25477288     0.67544437     0.10000000 1 1 1
     0.26925609     0.69058591     0.10000000 1 1 1
     0.28373930     0.70572745     0.10000000 1 1 1
     0.29822251     0.72086899     0.10000000 1 1 1
     0.31270573     0.73601053     0.10000000 1 1 1
     0.32718894     0.75115207     0.10000000 1 1 1
     0.34167215     0.76629361     0.10000000 1 1 1
     0.35615537     0.78143515     0.10000000 1 1 1
     0.37063858     0.79657670     0.10000000 1 1 1
     0.38512179     0.81171824     0.10000000 1 1 1
     0.39960500     0.82685978     0.10000000 1 1 1
     0.41408822     0.84200132     0.10000000 1 1 1
     0.42857143     0.85714286     0.10000000 1 1 1
     0.44305464     0.87228440     0.10000000 1 1 1
     0.45753785     0.88742594     0.10000000 1 1 1
     0.47202107     0.90256748     0.10000000 1 1 1
     0.48650428     0.91770902     0.10000000 1 1 1
     0.50098749     0.93285056     0.10000000 1 1 1
     0.51547070     0.94799210     0.10000000 1 1 1
     0.52995392     0.96313364     0.10000000 1 1 1
     0.54443713     0.97827518     0.10000000 1 1 1
     0.55892034     0.99341672     0.10000000 1 1 1
     0.00921659     0.37327189     0.10000000 1 1 1
     0.02369980     0.38841343     0.10000000 1 1 1
     0.03818302     0.40355497     0.10000000 1 1 1
     0.05266623     0.41869651     0.10000000 1 1 1
     0.06714944     0.43383805     0.10000000 1 1 1
     0.08163265     0.44897959     0.10000000 1 1 1
     0.09611587     0.46412113     0.10000000 1 1 1
     0.11059908     0.47926267     0.10000000 1 1 1
     0.12508229     0.49440421     0.10000000 1 1 1
     0.13956550     0.50954575     0.10000000 1 1 1
     0.15404872     0.52468729     0.10000000 1 1 1
     0.16853193     0.53982883     0.10000000 1 1 1
     0.18301514     0.55497038     0.10000000 1 1 1
     0.19749835     0.57011192     0.10000000 1 1 1
     0.21198157     0.58525346     0.10000000 1 1 1
     0.22646478     0.60039500     0.10000000 1 1 1
     0.24094799     0.61553654     0.10000000 1 1 1
     0.25543120     0.63067808     0.10000000 1 1 1
     0.26991442     0.64581962     0.10000000 1 1 1
     0.28439763     0.66096116     0.10000000 1 1 1
     0.29888084     0.67610270     0.10000000 1 1 1
     0.31336406     0.69124424     0.10000000 1 1 1
     0.32784727     0.70638578     0.10000000 1 1 1
     0.34233048     0.72152732     0.10000000 1 1 1
     0.35681369     0.73666886     0.10000000 1 1 1
     0.37129691     0.75181040     0.10000000 1 1 1
     0.38578012     0.76695194     0.10000000 1 1 1
     0.40026333     0.78209348     0.10000000 1 1 1
     0.41474654     0.79723502     0.10000000 1 1 1
     0.42922976     0.81237656     0.10000000 1 1 1
     0.44371297     0.82751810     0.10000000 1 1 1
     0.45819618     0.84265964     0.10000000 1 1 1
     0.47267939     0.85780118     0.10000000 1 1 1
     0.48716261     0.87294273     0.10000000 1 1 1
     0.50164582     0.88808427     0.10000000 1 1 1
     0.51612903     0.90322581     0.10000000 1 1 1
     0.53061224     0.91836735     0.10000000 1 1 1
     0.54509546     0.93350889     0.10000000 1 1 1
     0.55957867     0.94865043     0.10000000 1 1 1
     0.57406188     0.96379197     0.10000000 1 1 1
     0.58854510     0.97893351     0.10000000 1 1 1
     0.60302831     0.99407505     0.10000000 1 1 1
     0.00987492     0.32850560     0.10000000 1 1 1
     0.02435813     0.34364714     0.10000000 1 1 1
     0.03884134     0.35878868     0.10000000 1 1 1
     0.05332456     0.37393022     0.10000000 1 1 1
     0.06780777     0.38907176     0.10000000 1 1 1
     0.08229098     0.40421330     0.10000000 1 1 1
     0.09677419     0.41935484     0.10000000 1 1 1
     0.11125741     0.43449638     0.10000000 1 1 1
     0.12574062     0.44963792     0.10000000 1 1 1
     0.14022383     0.46477946     0.10000000 1 1 1
     0.15470704     0.47992100     0.10000000 1 1 1
     0.16919026     0.49506254     0.10000000 1 1 1
     0.18367347     0.51020408     0.10000000 1 1 1
     0.19815668     0.52534562     0.10000000 1 1 1
     0.21263989     0.54048716     0.10000000 1 1 1
     0.22712311     0.55562870     0.10000000 1 1 1
     0.24160632     0.57077024     0.10000000 1 1 1
     0.25608953     0.58591178     0.10000000 1 1 1
     0.27057275     0.60105332     0.10000000 1 1 1
     0.28505596     0.61619487     0.10000000 1 1 1
     0.29953917     0.63133641     0.10000000 1 1 1
     0.31402238     0.64647795     0.10000000 1 1 1
     0.32850560     0.66161949     0.10000000 1 1 1
     0.34298881     0.67676103     0.10000000 1 1 1
     0.35747202     0.69190257     0.10000000 1 1 1
     0.37195523     0.70704411     0.10000000 1 1 1
     0.38643845     0.72218565     0.10000000 1 1 1
     0.40092166     0.73732719     0.10000000 1 1 1
     0.41540487     0.75246873     0.10000000 1 1 1
     0.42988808     0.76761027     0.10000000 1 1 1
     0.44437130     0.78275181     0.10000000 1 1 1
     0.45885451     0.79789335     0.10000000 1 1 1
     0.47333772     0.81303489     0.10000000 1 1 1
     0.48782093     0.82817643     0.10000000 1 1 1
     0.50230415     0.84331797     0.10000000 1 1 1
     0.51678736     0.85845951     0.10000000 1 1 1
     0.53127057     0.87360105     0.10000000 1 1 1
     0.54575379     0.88874259     0.10000000 1 1 1
     0.56023700     0.90388413     0.10000000 1 1 1
     0.57472021     0.91902567     0.10000000 1 1 1
     0.58920342     0.93416722     0.10000000 1 1 1
     0.60368664     0.94930876     0.10000000 1 1 1
     0.61816985     0.96445030     0.10000000 1 1 1
     0.63265306     0.97959184     0.10000000 1 1 1
     0.64713627     0.99473338     0.10000000 1 1 1
     0.01053325     0.28373930     0.10000000 1 1 1
     0.02501646     0.29888084     0.10000000 1 1 1
     0.03949967     0.31402238     0.10000000 1 1 1
     0.05398288     0.32916392     0.10000000 1 1 1
     0.06846610     0.34430546     0.10000000 1 1 1
     0.08294931     0.35944700     0.10000000 1 1 1
     0.09743252     0.37458855     0.10000000 1 1 1
     0.11191573     0.38973009     0.10000000 1 1 1
     0.12639895     0.40487163     0.10000000 1 1 1
     0.14088216     0.42001317     0.10000000 1 1 1
     0.15536537     0.43515471     0.10000000 1 1 1
     0.16984858     0.45029625     0.10000000 1 1 1
     0.18433180     0.46543779     0.10000000 1 1 1
     0.19881501     0.48057933     0.10000000 1 1 1
     0.21329822     0.49572087     0.10000000 1 1 1
     0.22778144     0.51086241     0.10000000 1 1 1
     0.24226465     0.52600395     0.10000000 1 1 1
     0.25674786     0.54114549     0.10000000 1 1 1
     0.27123107     0.55628703     0.10000000 1 1 1
     0.28571429     0.57142857     0.10000000 1 1 1
     0.30019750     0.58657011     0.10000000 1 1 1
     0.31468071     0.60171165     0.10000000 1 1 1
     0.32916392     0.61685319     0.10000000 1 1 1
     0.34364714     0.63199473     0.10000000 1 1 1
     0.35813035     0.64713627     0.10000000 1 1 1
     0.37261356     0.66227781     0.10000000 1 1 1
     0.38709677     0.67741935     0.10000000 1 1 1
     0.40157999     0.69256090     0.10000000 1 1 1
     0.41606320     0.70770244     0.10000000 1 1 1
     0.43054641     0.72284398     0.10000000 1 1 1
     0.44502962     0.73798552     0.10000000 1 1 1
     0.45951284     0.75312706     0.10000000 1 1 1
     0.47399605     0.76826860     0.10000000 1 1 1
     0.48847926     0.78341014     0.10000000 1 1 1
     0.50296248     0.79855168     0.10000000 1 1 1
     0.51744569     0.81369322     0.10000000 1 1 1
     0.53192890     0.82883476     0.10000000 1 1 1
     0.54641211     0.84397630     0.10000000 1 1 1
     0.56089533     0.85911784     0.10000000 1 1 1
     0.57537854     0.87425938     0.10000000 1 1 1
     0.58986175     0.88940092     0.10000000 1 1 1
     0.60434496     0.90454246     0.10000000 1 1 1
     0.61882818     0.91968400     0.10000000 1 1 1
     0.63331139     0.93482554     0.10000000 1 1 1
     0.64779460     0.94996708     0.10000000 1 1 1
     0.66227781     0.96510862     0.10000000 1 1 1
     0.67676103     0.98025016     0.10000000 1 1 1
     0.69124424     0.99539171     0.10000000 1 1 1
     0.01119157     0.23897301     0.10000000 1 1 1
     0.02567479     0.25411455     0.10000000 1 1 1
     0.04015800     0.26925609     0.10000000 1 1 1
     0.05464121     0.28439763     0.10000000 1 1 1
     0.06912442     0.29953917     0.10000000 1 1 1
     0.08360764     0.31468071     0.10000000 1 1 1
     0.09809085     0.32982225     0.10000000 1 1 1
     0.11257406     0.34496379     0.10000000 1 1 1
     0.12705727     0.36010533     0.10000000 1 1 1
     0.14154049     0.37524687     0.10000000 1 1 1
     0.15602370     0.39038841     0.10000000 1 1 1
     0.17050691     0.40552995     0.10000000 1 1 1
     0.18499013     0.42067149     0.10000000 1 1 1
     0.19947334     0.43581303     0.10000000 1 1 1
     0.21395655     0.45095458     0.10000000 1 1 1
     0.22843976     0.46609612     0.10000000 1 1 1
     0.24292298     0.48123766     0.10000000 1 1 1
     0.25740619     0.49637920     0.10000000 1 1 1
     0.27188940     0.51152074     0.10000000 1 1 1
     0.28637261     0.52666228     0.10000000 1 1 1
     0.30085583     0.54180382     0.10000000 1 1 1
     0.31533904     0.55694536     0.10000000 1 1 1
     0.32982225     0.57208690     0.10000000 1 1 1
     0.34430546     0.58722844     0.10000000 1 1 1
     0.35878868     0.60236998     0.10000000 1 1 1
     0.37327189     0.61751152     0.10000000 1 1 1
     0.38775510     0.63265306     0.10000000 1 1 1
     0.40223831     0.64779460     0.10000000 1 1 1
     0.41672153     0.66293614     0.10000000 1 1 1
     0.43120474     0.67807768     0.10000000 1 1 1
     0.44568795     0.69321922     0.10000000 1 1 1
     0.46017117     0.70836076     0.10000000 1 1 1
     0.47465438     0.72350230     0.10000000 1 1 1
     0.48913759     0.73864384     0.10000000 1 1 1
     0.50362080     0.75378539     0.10000000 1 1 1
     0.51810402     0.76892693     0.10000000 1 1 1
     0.53258723     0.78406847     0.10000000 1 1 1
     0.54707044     0.79921001     0.10000000 1 1 1
     0.56155365     0.81435155     0.10000000 1 1 1
     0.57603687     0.82949309     0.10000000 1 1 1
     0.59052008     0.84463463     0.10000000 1 1 1
     0.60500329     0.85977617     0.10000000 1 1 1
     0.61948650     0.87491771     0.10000000 1 1 1
     0.63396972     0.89005925     0.10000000 1 1 1
     0.64845293     0.90520079     0.10000000 1 1 1
     0.66293614     0.92034233     0.10000000 1 1 1
     0.67741935     0.93548387     0.10000000 1 1 1
     0.69190257     0.95062541     0.10000000 1 1 1
     0.70638578     0.96576695     0.10000000 1 1 1
     0.72086899     0.98090849     0.10000000 1 1 1
     0.73535221     0.99605003     0.10000000 1 1 1
     0.01184990     0.19420671     0.10000000 1 1 1
     0.02633311     0.20934826     0.10000000 1 1 1
     0.04081633     0.22448980     0.10000000 1 1 1
     0.05529954     0.23963134     0.10000000 1 1 1
     0.06978275     0.25477288     0.10000000 1 1 1
     0.08426596     0.26991442     0.10000000 1 1 1
     0.09874918     0.28505596     0.10000000 1 1 1
     0.11323239     0.30019750     0.10000000 1 1 1
     0.12771560     0.31533904     0.10000000 1 1 1
     0.14219882     0.33048058     0.10000000 1 1 1
     0.15668203     0.34562212     0.10000000 1 1 1
     0.17116524     0.36076366     0.10000000 1 1 1
     0.18564845     0.37590520     0.10000000 1 1 1
     0.20013167     0.39104674     0.10000000 1 1 1
     0.21461488     0.40618828     0.10000000 1 1 1
     0.22909809     0.42132982     0.10000000 1 1 1
     0.24358130     0.43647136     0.10000000 1 1 1
     0.25806452     0.45161290     0.10000000 1 1 1
     0.27254773     0.46675444     0.10000000 1 1 1
     0.28703094     0.48189598     0.10000000 1 1 1
     0.30151415     0.49703752     0.10000000 1 1 1
     0.31599737     0.51217907     0.10000000 1 1 1
     0.33048058     0.52732061     0.10000000 1 1 1
     0.34496379     0.54246215     0.10000000 1 1 1
     0.35944700     0.55760369     0.10000000 1 1 1
     0.37393022     0.57274523     0.10000000 1 1 1
     0.38841343     0.58788677     0.10000000 1 1 1
     0.40289664     0.60302831     0.10000000 1 1 1
     0.41737986     0.61816985     0.10000000 1 1 1
     0.43186307     0.63331139     0.10000000 1 1 1
     0.44634628     0.64845293     0.10000000 1 1 1
     0.46082949     0.66359447     0.10000000 1 1 1
     0.47531271     0.67873601     0.10000000 1 1 1
     0.48979592     0.69387755     0.10000000 1 1 1
     0.50427913     0.70901909     0.10000000 1 1 1
     0.51876234     0.72416063     0.10000000 1 1 1
     0.53324556     0.73930217     0.10000000 1 1 1
     0.54772877     0.75444371     0.10000000 1 1 1
     0.56221198     0.76958525     0.10000000 1 1 1
     0.57669519     0.78472679     0.10000000 1 1 1
     0.59117841     0.79986833     0.10000000 1 1 1
     0.60566162     0.81500987     0.10000000 1 1 1
     0.62014483     0.83015142     0.10000000 1 1 1
     0.63462804     0.84529296     0.10000000 1 1 1
     0.64911126     0.86043450     0.10000000 1 1 1
     0.66359447     0.87557604     0.10000000 1 1 1
     0.67807768     0.89071758     0.10000000 1 1 1
     0.69256090     0.90585912     0.10000000 1 1 1
     0.70704411     0.92100066     0.10000000 1 1 1
     0.72152732     0.93614220     0.10000000 1 1 1
     0.73601053     0.95128374     0.10000000 1 1 1
     0.75049375     0.96642528     0.10000000 1 1 1
     0.76497696     0.98156682     0.10000000 1 1 1
     0.77946017     0.99670836     0.10000000 1 1 1
     0.01250823     0.14944042     0.10000000 1 1 1
     0.02699144     0.16458196     0.10000000 1 1 1
     0.04147465     0.17972350     0.10000000 1 1 1
     0.05595787     0.19486504     0.10000000 1 1 1
     0.07044108     0.21000658     0.10000000 1 1 1
     0.08492429     0.22514812     0.10000000 1 1 1
     0.09940750     0.24028966     0.10000000 1 1 1
     0.11389072     0.25543120     0.10000000 1 1 1
     0.12837393     0.27057275     0.10000000 1 1 1
     0.14285714     0.28571429     0.10000000 1 1 1
     0.15734036     0.30085583     0.10000000 1 1 1
     0.17182357     0.31599737     0.10000000 1 1 1
     0.18630678     0.33113891     0.10000000 1 1 1
     0.20078999     0.34628045     0.10000000 1 1 1
     0.21527321     0.36142199     0.10000000 1 1 1
     0.22975642     0.37656353     0.10000000 1 1 1
     0.24423963     0.39170507     0.10000000 1 1 1
     0.25872284     0.40684661     0.10000000 1 1 1
     0.27320606     0.42198815     0.10000000 1 1 1
     0.28768927     0.43712969     0.10000000 1 1 1
     0.30217248     0.45227123     0.10000000 1 1 1
     0.31665569     0.46741277     0.10000000 1 1 1
     0.33113891     0.48255431     0.10000000 1 1 1
     0.34562212     0.49769585     0.10000000 1 1 1
     0.36010533     0.51283739     0.10000000 1 1 1
     0.37458855     0.52797893     0.10000000 1 1 1
     0.38907176     0.54312047     0.10000000 1 1 1
     0.40355497     0.55826201     0.10000000 1 1 1
     0.41803818     0.57340355     0.10000000 1 1 1
     0.43252140     0.58854510     0.10000000 1 1 1
     0.44700461     0.60368664     0.10000000 1 1 1
     0.46148782     0.61882818     0.10000000 1 1 1
     0.47597103     0.63396972     0.10000000 1 1 1
     0.49045425     0.64911126     0.10000000 1 1 1
     0.50493746     0.66425280     0.10000000 1 1 1
     0.51942067     0.67939434     0.10000000 1 1 1
     0.53390388     0.69453588     0.10000000 1 1 1
     0.54838710     0.70967742     0.10000000 1 1 1
     0.56287031     0.72481896     0.10000000 1 1 1
     0.57735352     0.73996050     0.10000000 1 1 1
     0.59183673     0.75510204     0.10000000 1 1 1
     0.60631995     0.77024358     0.10000000 1 1 1
     0.62080316     0.78538512     0.10000000 1 1 1
     0.63528637     0.80052666     0.10000000 1 1 1
     0.64976959     0.81566820     0.10000000 1 1 1
     0.66425280     0.83080974     0.10000000 1 1 1
     0.67873601     0.84595128     0.10000000 1 1 1
     0.69321922     0.86109282     0.10000000 1 1 1
     0.70770244     0.87623436     0.10000000 1 1 1
     0.72218565     0.89137591     0.10000000 1 1 1
     0.73666886     0.90651745     0.10000000 1 1 1
     0.75115207     0.92165899     0.10000000 1 1 1
     0.76563529     0.93680053     0.10000000 1 1 1
     0.78011850     0.95194207     0.10000000 1 1 1
     0.79460171     0.96708361     0.10000000 1 1 1
     0.80908492     0.98222515     0.10000000 1 1 1
     0.82356814     0.99736669     0.10000000 1 1 1