ATOMIC_SPECIES
C 6.000 /mnt/C_ONCV_PBE-1.0.upf

NUMERICAL_ORBITAL
/mnt/C_gga_8au_100Ry_2s2p1d.orb

LATTICE_CONSTANT
1.889716

LATTICE_VECTORS
       68.86600000       38.33981065       0.00000000
       1.22975000       78.80961078       0.00000000
       0.00000000       0.00000000       30.00000000

ATOMIC_POSITIONS
Direct

C
0.0
4108
     0.00097371     0.94547225     0.10000000 1 1 1
     0.01850049     0.96397274     0.10000000 1 1 1
     0.03602726     0.98247322     0.10000000 1 1 1
     0.00194742     0.89094450     0.10000000 1 1 1
     0.01947420     0.90944499     0.10000000 1 1 1
     0.03700097     0.92794547     0.10000000 1 1 1
     0.05452775     0.94644596     0.10000000 1 1 1
     0.07205453     0.96494645     0.10000000 1 1 1
     0.08958130     0.98344693     0.10000000 1 1 1
     0.00292113     0.83641675     0.10000000 1 1 1
     0.02044791     0.85491723     0.10000000 1 1 1
     0.03797468     0.87341772     0.10000000 1 1 1
     0.05550146     0.89191821     0.10000000 1 1 1
     0.07302824     0.91041870     0.10000000 1 1 1
     0.09055501     0.92891918     0.10000000 1 1 1
     0.10808179     0.94741967     0.10000000 1 1 1
     0.12560857     0.96592016     0.10000000 1 1 1
     0.14313535     0.98442064     0.10000000 1 1 1
     0.00389484     0.78188900     0.10000000 1 1 1
     0.02142162     0.80038948     0.10000000 1 1 1
     0.03894839     0.81888997     0.10000000 1 1 1
     0.05647517     0.83739046     0.10000000 1 1 1
     0.07400195     0.85589094     0.10000000 1 1 1
     0.09152872     0.87439143     0.10000000 1 1 1
     0.10905550     0.89289192     0.10000000 1 1 1
     0.12658228     0.91139241     0.10000000 1 1 1
     0.14410906     0.92989289     0.10000000 1 1 1
     0.16163583     0.94839338     0.10000000 1 1 1
     0.17916261     0.96689387     0.10000000 1 1 1
     0.19668939     0.98539435     0.10000000 1 1 1
     0.00486855     0.72736125     0.10000000 1 1 1
     0.02239533     0.74586173     0.10000000 1 1 1
     0.03992210     0.76436222     0.10000000 1 1 1
     0.05744888     0.78286271     0.10000000 1 1 1
     0.07497566     0.80136319     0.10000000 1 1 1
     0.09250243     0.81986368     0.10000000 1 1 1
     0.11002921     0.83836417     0.10000000 1 1 1
     0.12755599     0.85686465     0.10000000 1 1 1
     0.14508277     0.87536514     0.10000000 1 1 1
     0.16260954     0.89386563     0.10000000 1 1 1
     0.18013632     0.91236611     0.10000000 1 1 1
     0.19766310     0.93086660     0.10000000 1 1 1
     0.21518987     0.94936709     0.10000000 1 1 1
     0.23271665     0.96786758     0.10000000 1 1 1
     0.25024343     0.98636806     0.10000000 1 1 1
     0.00584226     0.67283350     0.10000000 1 1 1
     0.02336904     0.69133398     0.10000000 1 1 1
     0.04089581     0.70983447     0.10000000 1 1 1
     0.05842259     0.72833496     0.10000000 1 1 1
     0.07594937     0.74683544     0.10000000 1 1 1
     0.09347614     0.76533593     0.10000000 1 1 1
     0.11100292     0.78383642     0.10000000 1 1 1
     0.12852970     0.80233690     0.10000000 1 1 1
     0.14605648     0.82083739     0.10000000 1 1 1
     0.16358325     0.83933788     0.10000000 1 1 1
     0.18111003     0.85783836     0.10000000 1 1 1
     0.19863681     0.87633885     0.10000000 1 1 1
     0.21616358     0.89483934     0.10000000 1 1 1
     0.23369036     0.91333982     0.10000000 1 1 1
     0.25121714     0.93184031     0.10000000 1 1 1
     0.26874391     0.95034080     0.10000000 1 1 1
     0.28627069     0.96884129     0.10000000 1 1 1
     0.30379747     0.98734177     0.10000000 1 1 1
     0.00681597     0.61830574     0.10000000 1 1 1
     0.02434275     0.63680623     0.10000000 1 1 1
     0.04186952     0.65530672     0.10000000 1 1 1
     0.05939630     0.67380721     0.10000000 1 1 1
     0.07692308     0.69230769     0.10000000 1 1 1
     0.09444985     0.71080818     0.10000000 1 1 1
     0.11197663     0.72930867     0.10000000 1 1 1
     0.12950341     0.74780915     0.10000000 1 1 1
     0.14703019     0.76630964     0.10000000 1 1 1
     0.16455696     0.78481013     0.10000000 1 1 1
     0.18208374     0.80331061     0.10000000 1 1 1
     0.19961052     0.82181110     0.10000000 1 1 1
     0.21713729     0.84031159     0.10000000 1 1 1
     0.23466407     0.85881207     0.10000000 1 1 1
     0.25219085     0.87731256     0.10000000 1 1 1
     0.26971762     0.89581305     0.10000000 1 1 1
     0.28724440     0.91431353     0.10000000 1 1 1
     0.30477118     0.93281402     0.10000000 1 1 1
     0.32229796     0.95131451     0.10000000 1 1 1
     0.33982473     0.96981500     0.10000000 1 1 1
     0.35735151     0.98831548     0.10000000 1 1 1
     0.00778968     0.56377799     0.10000000 1 1 1
     0.02531646     0.58227848     0.10000000 1 1 1
     0.04284323     0.60077897     0.10000000 1 1 1
     0.06037001     0.61927945     0.10000000 1 1 1
     0.07789679     0.63777994     0.10000000 1 1 1
     0.09542356     0.65628043     0.10000000 1 1 1
     0.11295034     0.67478092     0.10000000 1 1 1
     0.13047712     0.69328140     0.10000000 1 1 1
     0.14800389     0.71178189     0.10000000 1 1 1
     0.16553067     0.73028238     0.10000000 1 1 1
     0.18305745     0.74878286     0.10000000 1 1 1
     0.20058423     0.76728335     0.10000000 1 1 1
     0.21811100     0.78578384     0.10000000 1 1 1
     0.23563778     0.80428432     0.10000000 1 1 1
     0.25316456     0.82278481     0.10000000 1 1 1
     0.27069133     0.84128530     0.10000000 1 1 1
     0.28821811     0.85978578     0.10000000 1 1 1
     0.30574489     0.87828627     0.10000000 1 1 1
     0.32327167     0.89678676     0.10000000 1 1 1
     0.34079844     0.91528724     0.10000000 1 1 1
     0.35832522     0.93378773     0.10000000 1 1 1
     0.37585200     0.95228822     0.10000000 1 1 1
     0.39337877     0.97078870     0.10000000 1 1 1
     0.41090555     0.98928919     0.10000000 1 1 1
     0.00876339     0.50925024     0.10000000 1 1 1
     0.02629017     0.52775073     0.10000000 1 1 1
     0.04381694     0.54625122     0.10000000 1 1 1
     0.06134372     0.56475170     0.10000000 1 1 1
     0.07887050     0.58325219     0.10000000 1 1 1
     0.09639727     0.60175268     0.10000000 1 1 1
     0.11392405     0.62025316     0.10000000 1 1 1
     0.13145083     0.63875365     0.10000000 1 1 1
     0.14897760     0.65725414     0.10000000 1 1 1
     0.16650438     0.67575463     0.10000000 1 1 1
     0.18403116     0.69425511     0.10000000 1 1 1
     0.20155794     0.71275560     0.10000000 1 1 1
     0.21908471     0.73125609     0.10000000 1 1 1
     0.23661149     0.74975657     0.10000000 1 1 1
     0.25413827     0.76825706     0.10000000 1 1 1
     0.27166504     0.78675755     0.10000000 1 1 1
     0.28919182     0.80525803     0.10000000 1 1 1
     0.30671860     0.82375852     0.10000000 1 1 1
     0.32424537     0.84225901     0.10000000 1 1 1
     0.34177215     0.86075949     0.10000000 1 1 1
     0.35929893     0.87925998     0.10000000 1 1 1
     0.37682571     0.89776047     0.10000000 1 1 1
     0.39435248     0.91626095     0.10000000 1 1 1
     0.41187926     0.93476144     0.10000000 1 1 1
     0.42940604     0.95326193     0.10000000 1 1 1
     0.44693281     0.97176241     0.10000000 1 1 1
     0.46445959     0.99026290     0.10000000 1 1 1
     0.00973710     0.45472249     0.10000000 1 1 1
     0.02726388     0.47322298     0.10000000 1 1 1
     0.04479065     0.49172347     0.10000000 1 1 1
     0.06231743     0.51022395     0.10000000 1 1 1
     0.07984421     0.52872444     0.10000000 1 1 1
     0.09737098     0.54722493     0.10000000 1 1 1
     0.11489776     0.56572541     0.10000000 1 1 1
     0.13242454     0.58422590     0.10000000 1 1 1
     0.14995131     0.60272639     0.10000000 1 1 1
     0.16747809     0.62122687     0.10000000 1 1 1
     0.18500487     0.63972736     0.10000000 1 1 1
     0.20253165     0.65822785     0.10000000 1 1 1
     0.22005842     0.67672833     0.10000000 1 1 1
     0.23758520     0.69522882     0.10000000 1 1 1
     0.25511198     0.71372931     0.10000000 1 1 1
     0.27263875     0.73222980     0.10000000 1 1 1
     0.29016553     0.75073028     0.10000000 1 1 1
     0.30769231     0.76923077     0.10000000 1 1 1
     0.32521908     0.78773126     0.10000000 1 1 1
     0.34274586     0.80623174     0.10000000 1 1 1
     0.36027264     0.82473223     0.10000000 1 1 1
     0.37779942     0.84323272     0.10000000 1 1 1
     0.39532619     0.86173320     0.10000000 1 1 1
     0.41285297     0.88023369     0.10000000 1 1 1
     0.43037975     0.89873418     0.10000000 1 1 1
     0.44790652     0.91723466     0.10000000 1 1 1
     0.46543330     0.93573515     0.10000000 1 1 1
     0.48296008     0.95423564     0.10000000 1 1 1
     0.50048685     0.97273612     0.10000000 1 1 1
     0.51801363     0.99123661     0.10000000 1 1 1
     0.01071081     0.40019474     0.10000000 1 1 1
     0.02823759     0.41869523     0.10000000 1 1 1
     0.04576436     0.43719572     0.10000000 1 1 1
     0.06329114     0.45569620     0.10000000 1 1 1
     0.08081792     0.47419669     0.10000000 1 1 1
     0.09834469     0.49269718     0.10000000 1 1 1
     0.11587147     0.51119766     0.10000000 1 1 1
     0.13339825     0.52969815     0.10000000 1 1 1
     0.15092502     0.54819864     0.10000000 1 1 1
     0.16845180     0.56669912     0.10000000 1 1 1
     0.18597858     0.58519961     0.10000000 1 1 1
     0.20350536     0.60370010     0.10000000 1 1 1
     0.22103213     0.62220058     0.10000000 1 1 1
     0.23855891     0.64070107     0.10000000 1 1 1
     0.25608569     0.65920156     0.10000000 1 1 1
     0.27361246     0.67770204     0.10000000 1 1 1
     0.29113924     0.69620253     0.10000000 1 1 1
     0.30866602     0.71470302     0.10000000 1 1 1
     0.32619279     0.73320351     0.10000000 1 1 1
     0.34371957     0.75170399     0.10000000 1 1 1
     0.36124635     0.77020448     0.10000000 1 1 1
     0.37877313     0.78870497     0.10000000 1 1 1
     0.39629990     0.80720545     0.10000000 1 1 1
     0.41382668     0.82570594     0.10000000 1 1 1
     0.43135346     0.84420643     0.10000000 1 1 1
     0.44888023     0.86270691     0.10000000 1 1 1
     0.46640701     0.88120740     0.10000000 1 1 1
     0.48393379     0.89970789     0.10000000 1 1 1
     0.50146056     0.91820837     0.10000000 1 1 1
     0.51898734     0.93670886     0.10000000 1 1 1
     0.53651412     0.95520935     0.10000000 1 1 1
     0.55404090     0.97370983     0.10000000 1 1 1
     0.57156767     0.99221032     0.10000000 1 1 1
     0.01168452     0.34566699     0.10000000 1 1 1
     0.02921130     0.36416748     0.10000000 1 1 1
     0.04673807     0.38266796     0.10000000 1 1 1
     0.06426485     0.40116845     0.10000000 1 1 1
     0.08179163     0.41966894     0.10000000 1 1 1
     0.09931840     0.43816943     0.10000000 1 1 1
     0.11684518     0.45666991     0.10000000 1 1 1
     0.13437196     0.47517040     0.10000000 1 1 1
     0.15189873     0.49367089     0.10000000 1 1 1
     0.16942551     0.51217137     0.10000000 1 1 1
     0.18695229     0.53067186     0.10000000 1 1 1
     0.20447907     0.54917235     0.10000000 1 1 1
     0.22200584     0.56767283     0.10000000 1 1 1
     0.23953262     0.58617332     0.10000000 1 1 1
     0.25705940     0.60467381     0.10000000 1 1 1
     0.27458617     0.62317429     0.10000000 1 1 1
     0.29211295     0.64167478     0.10000000 1 1 1
     0.30963973     0.66017527     0.10000000 1 1 1
     0.32716650     0.67867575     0.10000000 1 1 1
     0.34469328     0.69717624     0.10000000 1 1 1
     0.36222006     0.71567673     0.10000000 1 1 1
     0.37974684     0.73417722     0.10000000 1 1 1
     0.39727361     0.75267770     0.10000000 1 1 1
     0.41480039     0.77117819     0.10000000 1 1 1
     0.43232717     0.78967868     0.10000000 1 1 1
     0.44985394     0.80817916     0.10000000 1 1 1
     0.46738072     0.82667965     0.10000000 1 1 1
     0.48490750     0.84518014     0.10000000 1 1 1
     0.50243427     0.86368062     0.10000000 1 1 1
     0.51996105     0.88218111     0.10000000 1 1 1
     0.53748783     0.90068160     0.10000000 1 1 1
     0.55501461     0.91918208     0.10000000 1 1 1
     0.57254138     0.93768257     0.10000000 1 1 1
     0.59006816     0.95618306     0.10000000 1 1 1
     0.60759494     0.97468354     0.10000000 1 1 1
     0.62512171     0.99318403     0.10000000 1 1 1
     0.01265823     0.29113924     0.10000000 1 1 1
     0.03018500     0.30963973     0.10000000 1 1 1
     0.04771178     0.32814021     0.10000000 1 1 1
     0.06523856     0.34664070     0.10000000 1 1 1
     0.08276534     0.36514119     0.10000000 1 1 1
     0.10029211     0.38364167     0.10000000 1 1 1
     0.11781889     0.40214216     0.10000000 1 1 1
     0.13534567     0.42064265     0.10000000 1 1 1
     0.15287244     0.43914314     0.10000000 1 1 1
     0.17039922     0.45764362     0.10000000 1 1 1
     0.18792600     0.47614411     0.10000000 1 1 1
     0.20545278     0.49464460     0.10000000 1 1 1
     0.22297955     0.51314508     0.10000000 1 1 1
     0.24050633     0.53164557     0.10000000 1 1 1
     0.25803311     0.55014606     0.10000000 1 1 1
     0.27555988     0.56864654     0.10000000 1 1 1
     0.29308666     0.58714703     0.10000000 1 1 1
     0.31061344     0.60564752     0.10000000 1 1 1
     0.32814021     0.62414800     0.10000000 1 1 1
     0.34566699     0.64264849     0.10000000 1 1 1
     0.36319377     0.66114898     0.10000000 1 1 1
     0.38072055     0.67964946     0.10000000 1 1 1
     0.39824732     0.69814995     0.10000000 1 1 1
     0.41577410     0.71665044     0.10000000 1 1 1
     0.43330088     0.73515093     0.10000000 1 1 1
     0.45082765     0.75365141     0.10000000 1 1 1
     0.46835443     0.77215190     0.10000000 1 1 1
     0.48588121     0.79065239     0.10000000 1 1 1
     0.50340798     0.80915287     0.10000000 1 1 1
     0.52093476     0.82765336     0.10000000 1 1 1
     0.53846154     0.84615385     0.10000000 1 1 1
     0.55598832     0.86465433     0.10000000 1 1 1
     0.57351509     0.88315482     0.10000000 1 1 1
     0.59104187     0.90165531     0.10000000 1 1 1
     0.60856865     0.92015579     0.10000000 1 1 1
     0.62609542     0.93865628     0.10000000 1 1 1
     0.64362220     0.95715677     0.10000000 1 1 1
     0.66114898     0.97565725     0.10000000 1 1 1
     0.67867575     0.99415774     0.10000000 1 1 1
     0.01363194     0.23661149     0.10000000 1 1 1
     0.03115871     0.25511198     0.10000000 1 1 1
     0.04868549     0.27361246     0.10000000 1 1 1
     0.06621227     0.29211295     0.10000000 1 1 1
     0.08373905     0.31061344     0.10000000 1 1 1
     0.10126582     0.32911392     0.10000000 1 1 1
     0.11879260     0.34761441     0.10000000 1 1 1
     0.13631938     0.36611490     0.10000000 1 1 1
     0.15384615     0.38461538     0.10000000 1 1 1
     0.17137293     0.40311587     0.10000000 1 1 1
     0.18889971     0.42161636     0.10000000 1 1 1
     0.20642648     0.44011685     0.10000000 1 1 1
     0.22395326     0.45861733     0.10000000 1 1 1
     0.24148004     0.47711782     0.10000000 1 1 1
     0.25900682     0.49561831     0.10000000 1 1 1
     0.27653359     0.51411879     0.10000000 1 1 1
     0.29406037     0.53261928     0.10000000 1 1 1
     0.31158715     0.55111977     0.10000000 1 1 1
     0.32911392     0.56962025     0.10000000 1 1 1
     0.34664070     0.58812074     0.10000000 1 1 1
     0.36416748     0.60662123     0.10000000 1 1 1
     0.38169426     0.62512171     0.10000000 1 1 1
     0.39922103     0.64362220     0.10000000 1 1 1
     0.41674781     0.66212269     0.10000000 1 1 1
     0.43427459     0.68062317     0.10000000 1 1 1
     0.45180136     0.69912366     0.10000000 1 1 1
     0.46932814     0.71762415     0.10000000 1 1 1
     0.48685492     0.73612463     0.10000000 1 1 1
     0.50438169     0.75462512     0.10000000 1 1 1
     0.52190847     0.77312561     0.10000000 1 1 1
     0.53943525     0.79162610     0.10000000 1 1 1
     0.55696203     0.81012658     0.10000000 1 1 1
     0.57448880     0.82862707     0.10000000 1 1 1
     0.59201558     0.84712756     0.10000000 1 1 1
     0.60954236     0.86562804     0.10000000 1 1 1
     0.62706913     0.88412853     0.10000000 1 1 1
     0.64459591     0.90262902     0.10000000 1 1 1
     0.66212269     0.92112950     0.10000000 1 1 1
     0.67964946     0.93962999     0.10000000 1 1 1
     0.69717624     0.95813048     0.10000000 1 1 1
     0.71470302     0.97663096     0.10000000 1 1 1
     0.73222980     0.99513145     0.10000000 1 1 1
     0.01460565     0.18208374     0.10000000 1 1 1
     0.03213242     0.20058423     0.10000000 1 1 1
     0.04965920     0.21908471     0.10000000 1 1 1
     0.06718598     0.23758520     0.10000000 1 1 1
     0.08471276     0.25608569     0.10000000 1 1 1
     0.10223953     0.27458617     0.10000000 1 1 1
     0.11976631     0.29308666     0.10000000 1 1 1
     0.13729309     0.31158715     0.10000000 1 1 1
     0.15481986     0.33008763     0.10000000 1 1 1
     0.17234664     0.34858812     0.10000000 1 1 1
     0.18987342     0.36708861     0.10000000 1 1 1
     0.20740019     0.38558909     0.10000000 1 1 1
     0.22492697     0.40408958     0.10000000 1 1 1
     0.24245375     0.42259007     0.10000000 1 1 1
     0.25998053     0.44109056     0.10000000 1 1 1
     0.27750730     0.45959104     0.10000000 1 1 1
     0.29503408     0.47809153     0.10000000 1 1 1
     0.31256086     0.49659202     0.10000000 1 1 1
     0.33008763     0.51509250     0.10000000 1 1 1
     0.34761441     0.53359299     0.10000000 1 1 1
     0.36514119     0.55209348     0.10000000 1 1 1
     0.38266796     0.57059396     0.10000000 1 1 1
     0.40019474     0.58909445     0.10000000 1 1 1
     0.41772152     0.60759494     0.10000000 1 1 1
     0.43524830     0.62609542     0.10000000 1 1 1
     0.45277507     0.64459591     0.10000000 1 1 1
     0.47030185     0.66309640     0.10000000 1 1 1
     0.48782863     0.68159688     0.10000000 1 1 1
     0.50535540     0.70009737     0.10000000 1 1 1
     0.52288218     0.71859786     0.10000000 1 1 1
     0.54040896     0.73709834     0.10000000 1 1 1
     0.55793574     0.75559883     0.10000000 1 1 1
     0.57546251     0.77409932     0.10000000 1 1 1
     0.59298929     0.79259981     0.10000000 1 1 1
     0.61051607     0.81110029     0.10000000 1 1 1
     0.62804284     0.82960078     0.10000000 1 1 1
     0.64556962     0.84810127     0.10000000 1 1 1
     0.66309640     0.86660175     0.10000000 1 1 1
     0.68062317     0.88510224     0.10000000 1 1 1
     0.69814995     0.90360273     0.10000000 1 1 1
     0.71567673     0.92210321     0.10000000 1 1 1
     0.73320351     0.94060370     0.10000000 1 1 1
     0.75073028     0.95910419     0.10000000 1 1 1
     0.76825706     0.97760467     0.10000000 1 1 1
     0.78578384     0.99610516     0.10000000 1 1 1
     0.01557936     0.12755599     0.10000000 1 1 1
     0.03310613     0.14605648     0.10000000 1 1 1
     0.05063291     0.16455696     0.10000000 1 1 1
     0.06815969     0.18305745     0.10000000 1 1 1
     0.08568647     0.20155794     0.10000000 1 1 1
     0.10321324     0.22005842     0.10000000 1 1 1
     0.12074002     0.23855891     0.10000000 1 1 1
     0.13826680     0.25705940     0.10000000 1 1 1
     0.15579357     0.27555988     0.10000000 1 1 1
     0.17332035     0.29406037     0.10000000 1 1 1
     0.19084713     0.31256086     0.10000000 1 1 1
     0.20837390     0.33106134     0.10000000 1 1 1
     0.22590068     0.34956183     0.10000000 1 1 1
     0.24342746     0.36806232     0.10000000 1 1 1
     0.26095424     0.38656280     0.10000000 1 1 1
     0.27848101     0.40506329     0.10000000 1 1 1
     0.29600779     0.42356378     0.10000000 1 1 1
     0.31353457     0.44206426     0.10000000 1 1 1
     0.33106134     0.46056475     0.10000000 1 1 1
     0.34858812     0.47906524     0.10000000 1 1 1
     0.36611490     0.49756573     0.10000000 1 1 1
     0.38364167     0.51606621     0.10000000 1 1 1
     0.40116845     0.53456670     0.10000000 1 1 1
     0.41869523     0.55306719     0.10000000 1 1 1
     0.43622201     0.57156767     0.10000000 1 1 1
     0.45374878     0.59006816     0.10000000 1 1 1
     0.47127556     0.60856865     0.10000000 1 1 1
     0.48880234     0.62706913     0.10000000 1 1 1
     0.50632911     0.64556962     0.10000000 1 1 1
     0.52385589     0.66407011     0.10000000 1 1 1
     0.54138267     0.68257059     0.10000000 1 1 1
     0.55890944     0.70107108     0.10000000 1 1 1
     0.57643622     0.71957157     0.10000000 1 1 1
     0.59396300     0.73807205     0.10000000 1 1 1
     0.61148978     0.75657254     0.10000000 1 1 1
     0.62901655     0.77507303     0.10000000 1 1 1
     0.64654333     0.79357352     0.10000000 1 1 1
     0.66407011     0.81207400     0.10000000 1 1 1
     0.68159688     0.83057449     0.10000000 1 1 1
     0.69912366     0.84907498     0.10000000 1 1 1
     0.71665044     0.86757546     0.10000000 1 1 1
     0.73417722     0.88607595     0.10000000 1 1 1
     0.75170399     0.90457644     0.10000000 1 1 1
     0.76923077     0.92307692     0.10000000 1 1 1
     0.78675755     0.94157741     0.10000000 1 1 1
     0.80428432     0.96007790     0.10000000 1 1 1
     0.82181110     0.97857838     0.10000000 1 1 1
     0.83933788     0.99707887     0.10000000 1 1 1
     0.01655307     0.07302824     0.10000000 1 1 1
     0.03407984     0.09152872     0.10000000 1 1 1
     0.05160662     0.11002921     0.10000000 1 1 1
     0.06913340     0.12852970     0.10000000 1 1 1
     0.08666018     0.14703019     0.10000000 1 1 1
     0.10418695     0.16553067     0.10000000 1 1 1
     0.12171373     0.18403116     0.10000000 1 1 1
     0.13924051     0.20253165     0.10000000 1 1 1
     0.15676728     0.22103213     0.10000000 1 1 1
     0.17429406     0.23953262     0.10000000 1 1 1
     0.19182084     0.25803311     0.10000000 1 1 1
     0.20934761     0.27653359     0.10000000 1 1 1
     0.22687439     0.29503408     0.10000000 1 1 1
     0.24440117     0.31353457     0.10000000 1 1 1
     0.26192795     0.33203505     0.10000000 1 1 1
     0.27945472     0.35053554     0.10000000 1 1 1
     0.29698150     0.36903603     0.10000000 1 1 1
     0.31450828     0.38753651     0.10000000 1 1 1
     0.33203505     0.40603700     0.10000000 1 1 1
     0.34956183     0.42453749     0.10000000 1 1 1
     0.36708861     0.44303797     0.10000000 1 1 1
     0.38461538     0.46153846     0.10000000 1 1 1
     0.40214216     0.48003895     0.10000000 1 1 1
     0.41966894     0.49853944     0.10000000 1 1 1
     0.43719572     0.51703992     0.10000000 1 1 1
     0.45472249     0.53554041     0.10000000 1 1 1
     0.47224927     0.55404090     0.10000000 1 1 1
     0.48977605     0.57254138     0.10000000 1 1 1
     0.50730282     0.59104187     0.10000000 1 1 1
     0.52482960     0.60954236     0.10000000 1 1 1
     0.54235638     0.62804284     0.10000000 1 1 1
     0.55988315     0.64654333     0.10000000 1 1 1
     0.57740993     0.66504382     0.10000000 1 1 1
     0.59493671     0.68354430     0.10000000 1 1 1
     0.61246349     0.70204479     0.10000000 1 1 1
     0.62999026     0.72054528     0.10000000 1 1 1
     0.64751704     0.73904576     0.10000000 1 1 1
     0.66504382     0.75754625     0.10000000 1 1 1
     0.68257059     0.77604674     0.10000000 1 1 1
     0.70009737     0.79454722     0.10000000 1 1 1
     0.71762415     0.81304771     0.10000000 1 1 1
     0.73515093     0.83154820     0.10000000 1 1 1
     0.75267770     0.85004869     0.10000000 1 1 1
     0.77020448     0.86854917     0.10000000 1 1 1
     0.78773126     0.88704966     0.10000000 1 1 1
     0.80525803     0.90555015     0.10000000 1 1 1
     0.82278481     0.92405063     0.10000000 1 1 1
     0.84031159     0.94255112     0.10000000 1 1 1
     0.85783836     0.96105161     0.10000000 1 1 1
     0.87536514     0.97955209     0.10000000 1 1 1
     0.89289192     0.99805258     0.10000000 1 1 1
     0.00000000     0.00000000     0.10000000 1 1 1
     0.01752678     0.01850049     0.10000000 1 1 1
     0.03505355     0.03700097     0.10000000 1 1 1
     0.05258033     0.05550146     0.10000000 1 1 1
     0.07010711     0.07400195     0.10000000 1 1 1
     0.08763389     0.09250243     0.10000000 1 1 1
     0.10516066     0.11100292     0.10000000 1 1 1
     0.12268744     0.12950341     0.10000000 1 1 1
     0.14021422     0.14800389     0.10000000 1 1 1
     0.15774099     0.16650438     0.10000000 1 1 1
     0.17526777     0.18500487     0.10000000 1 1 1
     0.19279455     0.20350536     0.10000000 1 1 1
     0.21032132     0.22200584     0.10000000 1 1 1
     0.22784810     0.24050633     0.10000000 1 1 1
     0.24537488     0.25900682     0.10000000 1 1 1
     0.26290166     0.27750730     0.10000000 1 1 1
     0.28042843     0.29600779     0.10000000 1 1 1
     0.29795521     0.31450828     0.10000000 1 1 1
     0.31548199     0.33300876     0.10000000 1 1 1
     0.33300876     0.35150925     0.10000000 1 1 1
     0.35053554     0.37000974     0.10000000 1 1 1
     0.36806232     0.38851022     0.10000000 1 1 1
     0.38558909     0.40701071     0.10000000 1 1 1
     0.40311587     0.42551120     0.10000000 1 1 1
     0.42064265     0.44401168     0.10000000 1 1 1
     0.43816943     0.46251217     0.10000000 1 1 1
     0.45569620     0.48101266     0.10000000 1 1 1
     0.47322298     0.49951315     0.10000000 1 1 1
     0.49074976     0.51801363     0.10000000 1 1 1
     0.50827653     0.53651412     0.10000000 1 1 1
     0.52580331     0.55501461     0.10000000 1 1 1
     0.54333009     0.57351509     0.10000000 1 1 1
     0.56085686     0.59201558     0.10000000 1 1 1
     0.57838364     0.61051607     0.10000000 1 1 1
     0.59591042     0.62901655     0.10000000 1 1 1
     0.61343720     0.64751704     0.10000000 1 1 1
     0.63096397     0.66601753     0.10000000 1 1 1
     0.64849075     0.68451801     0.10000000 1 1 1
     0.66601753     0.70301850     0.10000000 1 1 1
     0.68354430     0.72151899     0.10000000 1 1 1
     0.70107108     0.74001947     0.10000000 1 1 1
     0.71859786     0.75851996     0.10000000 1 1 1
     0.73612463     0.77702045     0.10000000 1 1 1
     0.75365141     0.79552093     0.10000000 1 1 1
     0.77117819     0.81402142     0.10000000 1 1 1
     0.78870497     0.83252191     0.10000000 1 1 1
     0.80623174     0.85102240     0.10000000 1 1 1
     0.82375852     0.86952288     0.10000000 1 1 1
     0.84128530     0.88802337     0.10000000 1 1 1
     0.85881207     0.90652386     0.10000000 1 1 1
     0.87633885     0.92502434     0.10000000 1 1 1
     0.89386563     0.94352483     0.10000000 1 1 1
     0.91139241     0.96202532     0.10000000 1 1 1
     0.92891918     0.98052580     0.10000000 1 1 1
     0.94644596     0.99902629     0.10000000 1 1 1
     0.05355404     0.00097371     0.10000000 1 1 1
     0.07108082     0.01947420     0.10000000 1 1 1
     0.08860759     0.03797468     0.10000000 1 1 1
     0.10613437     0.05647517     0.10000000 1 1 1
     0.12366115     0.07497566     0.10000000 1 1 1
     0.14118793     0.09347614     0.10000000 1 1 1
     0.15871470     0.11197663     0.10000000 1 1 1
     0.17624148     0.13047712     0.10000000 1 1 1
     0.19376826     0.14897760     0.10000000 1 1 1
     0.21129503     0.16747809     0.10000000 1 1 1
     0.22882181     0.18597858     0.10000000 1 1 1
     0.24634859     0.20447907     0.10000000 1 1 1
     0.26387537     0.22297955     0.10000000 1 1 1
     0.28140214     0.24148004     0.10000000 1 1 1
     0.29892892     0.25998053     0.10000000 1 1 1
     0.31645570     0.27848101     0.10000000 1 1 1
     0.33398247     0.29698150     0.10000000 1 1 1
     0.35150925     0.31548199     0.10000000 1 1 1
     0.36903603     0.33398247     0.10000000 1 1 1
     0.38656280     0.35248296     0.10000000 1 1 1
     0.40408958     0.37098345     0.10000000 1 1 1
     0.42161636     0.38948393     0.10000000 1 1 1
     0.43914314     0.40798442     0.10000000 1 1 1
     0.45666991     0.42648491     0.10000000 1 1 1
     0.47419669     0.44498539     0.10000000 1 1 1
     0.49172347     0.46348588     0.10000000 1 1 1
     0.50925024     0.48198637     0.10000000 1 1 1
     0.52677702     0.50048685     0.10000000 1 1 1
     0.54430380     0.51898734     0.10000000 1 1 1
     0.56183057     0.53748783     0.10000000 1 1 1
     0.57935735     0.55598832     0.10000000 1 1 1
     0.59688413     0.57448880     0.10000000 1 1 1
     0.61441091     0.59298929     0.10000000 1 1 1
     0.63193768     0.61148978     0.10000000 1 1 1
     0.64946446     0.62999026     0.10000000 1 1 1
     0.66699124     0.64849075     0.10000000 1 1 1
     0.68451801     0.66699124     0.10000000 1 1 1
     0.70204479     0.68549172     0.10000000 1 1 1
     0.71957157     0.70399221     0.10000000 1 1 1
     0.73709834     0.72249270     0.10000000 1 1 1
     0.75462512     0.74099318     0.10000000 1 1 1
     0.77215190     0.75949367     0.10000000 1 1 1
     0.78967868     0.77799416     0.10000000 1 1 1
     0.80720545     0.79649464     0.10000000 1 1 1
     0.82473223     0.81499513     0.10000000 1 1 1
     0.84225901     0.83349562     0.10000000 1 1 1
     0.85978578     0.85199611     0.10000000 1 1 1
     0.87731256     0.87049659     0.10000000 1 1 1
     0.89483934     0.88899708     0.10000000 1 1 1
     0.91236611     0.90749757     0.10000000 1 1 1
     0.92989289     0.92599805     0.10000000 1 1 1
     0.94741967     0.94449854     0.10000000 1 1 1
     0.96494645     0.96299903     0.10000000 1 1 1
     0.98247322     0.98149951     0.10000000 1 1 1
     0.10710808     0.00194742     0.10000000 1 1 1
     0.12463486     0.02044791     0.10000000 1 1 1