ATOMIC_SPECIES
C 6.000 ./C_ONCV_PBE-1.0.upf

NUMERICAL_ORBITAL
./C_gga_8au_100Ry_2s2p1d.orb

LATTICE_CONSTANT
1.889716

LATTICE_VECTORS
       91.0015023665       51.1197488594       0.0000000000
       -14.6928576730       26.1556864448       0.0000000000
       45.5007511832       25.5598744297       90.3929013656

ATOMIC_POSITIONS
Direct

C
0.0
7204
     0.000555250     0.100000000     0.958911720 1 1 1
     0.013881180     0.100000000     0.972792890 1 1 1
     0.027207110     0.100000000     0.986674070 1 1 1
     0.001110490     0.100000000     0.917823430 1 1 1
     0.014436420     0.100000000     0.931704610 1 1 1
     0.027762350     0.100000000     0.945585790 1 1 1
     0.041088280     0.100000000     0.959466960 1 1 1
     0.054414210     0.100000000     0.973348140 1 1 1
     0.067740140     0.100000000     0.987229320 1 1 1
     0.001665740     0.100000000     0.876735150 1 1 1
     0.014991670     0.100000000     0.890616320 1 1 1
     0.028317600     0.100000000     0.904497500 1 1 1
     0.041643530     0.100000000     0.918378680 1 1 1
     0.054969460     0.100000000     0.932259860 1 1 1
     0.068295390     0.100000000     0.946141030 1 1 1
     0.081621320     0.100000000     0.960022210 1 1 1
     0.094947250     0.100000000     0.973903390 1 1 1
     0.108273180     0.100000000     0.987784560 1 1 1
     0.002220990     0.100000000     0.835646860 1 1 1
     0.015546920     0.100000000     0.849528040 1 1 1
     0.028872850     0.100000000     0.863409220 1 1 1
     0.042198780     0.100000000     0.877290390 1 1 1
     0.055524710     0.100000000     0.891171570 1 1 1
     0.068850640     0.100000000     0.905052750 1 1 1
     0.082176570     0.100000000     0.918933930 1 1 1
     0.095502500     0.100000000     0.932815100 1 1 1
     0.108828430     0.100000000     0.946696280 1 1 1
     0.122154360     0.100000000     0.960577460 1 1 1
     0.135480290     0.100000000     0.974458630 1 1 1
     0.148806220     0.100000000     0.988339810 1 1 1
     0.002776240     0.100000000     0.794558580 1 1 1
     0.016102170     0.100000000     0.808439760 1 1 1
     0.029428100     0.100000000     0.822320930 1 1 1
     0.042754030     0.100000000     0.836202110 1 1 1
     0.056079960     0.100000000     0.850083290 1 1 1
     0.069405890     0.100000000     0.863964460 1 1 1
     0.082731820     0.100000000     0.877845640 1 1 1
     0.096057750     0.100000000     0.891726820 1 1 1
     0.109383680     0.100000000     0.905608000 1 1 1
     0.122709610     0.100000000     0.919489170 1 1 1
     0.136035540     0.100000000     0.933370350 1 1 1
     0.149361470     0.100000000     0.947251530 1 1 1
     0.162687400     0.100000000     0.961132700 1 1 1
     0.176013330     0.100000000     0.975013880 1 1 1
     0.189339260     0.100000000     0.988895060 1 1 1
     0.003331480     0.100000000     0.753470290 1 1 1
     0.016657410     0.100000000     0.767351470 1 1 1
     0.029983340     0.100000000     0.781232650 1 1 1
     0.043309270     0.100000000     0.795113830 1 1 1
     0.056635200     0.100000000     0.808995000 1 1 1
     0.069961130     0.100000000     0.822876180 1 1 1
     0.083287060     0.100000000     0.836757360 1 1 1
     0.096612990     0.100000000     0.850638530 1 1 1
     0.109938920     0.100000000     0.864519710 1 1 1
     0.123264850     0.100000000     0.878400890 1 1 1
     0.136590780     0.100000000     0.892282070 1 1 1
     0.149916710     0.100000000     0.906163240 1 1 1
     0.163242640     0.100000000     0.920044420 1 1 1
     0.176568570     0.100000000     0.933925600 1 1 1
     0.189894500     0.100000000     0.947806770 1 1 1
     0.203220430     0.100000000     0.961687950 1 1 1
     0.216546360     0.100000000     0.975569130 1 1 1
     0.229872290     0.100000000     0.989450310 1 1 1
     0.003886730     0.100000000     0.712382010 1 1 1
     0.017212660     0.100000000     0.726263190 1 1 1
     0.030538590     0.100000000     0.740144360 1 1 1
     0.043864520     0.100000000     0.754025540 1 1 1
     0.057190450     0.100000000     0.767906720 1 1 1
     0.070516380     0.100000000     0.781787900 1 1 1
     0.083842310     0.100000000     0.795669070 1 1 1
     0.097168240     0.100000000     0.809550250 1 1 1
     0.110494170     0.100000000     0.823431430 1 1 1
     0.123820100     0.100000000     0.837312600 1 1 1
     0.137146030     0.100000000     0.851193780 1 1 1
     0.150471960     0.100000000     0.865074960 1 1 1
     0.163797890     0.100000000     0.878956140 1 1 1
     0.177123820     0.100000000     0.892837310 1 1 1
     0.190449750     0.100000000     0.906718490 1 1 1
     0.203775680     0.100000000     0.920599670 1 1 1
     0.217101610     0.100000000     0.934480840 1 1 1
     0.230427540     0.100000000     0.948362020 1 1 1
     0.243753470     0.100000000     0.962243200 1 1 1
     0.257079400     0.100000000     0.976124380 1 1 1
     0.270405330     0.100000000     0.990005550 1 1 1
     0.004441980     0.100000000     0.671293730 1 1 1
     0.017767910     0.100000000     0.685174900 1 1 1
     0.031093840     0.100000000     0.699056080 1 1 1
     0.044419770     0.100000000     0.712937260 1 1 1
     0.057745700     0.100000000     0.726818430 1 1 1
     0.071071630     0.100000000     0.740699610 1 1 1
     0.084397560     0.100000000     0.754580790 1 1 1
     0.097723490     0.100000000     0.768461970 1 1 1
     0.111049420     0.100000000     0.782343140 1 1 1
     0.124375350     0.100000000     0.796224320 1 1 1
     0.137701280     0.100000000     0.810105500 1 1 1
     0.151027210     0.100000000     0.823986670 1 1 1
     0.164353140     0.100000000     0.837867850 1 1 1
     0.177679070     0.100000000     0.851749030 1 1 1
     0.191005000     0.100000000     0.865630210 1 1 1
     0.204330930     0.100000000     0.879511380 1 1 1
     0.217656860     0.100000000     0.893392560 1 1 1
     0.230982790     0.100000000     0.907273740 1 1 1
     0.244308720     0.100000000     0.921154910 1 1 1
     0.257634650     0.100000000     0.935036090 1 1 1
     0.270960580     0.100000000     0.948917270 1 1 1
     0.284286510     0.100000000     0.962798450 1 1 1
     0.297612440     0.100000000     0.976679620 1 1 1
     0.310938370     0.100000000     0.990560800 1 1 1
     0.004997220     0.100000000     0.630205440 1 1 1
     0.018323150     0.100000000     0.644086620 1 1 1
     0.031649080     0.100000000     0.657967800 1 1 1
     0.044975010     0.100000000     0.671848970 1 1 1
     0.058300940     0.100000000     0.685730150 1 1 1
     0.071626870     0.100000000     0.699611330 1 1 1
     0.084952800     0.100000000     0.713492500 1 1 1
     0.098278730     0.100000000     0.727373680 1 1 1
     0.111604660     0.100000000     0.741254860 1 1 1
     0.124930590     0.100000000     0.755136040 1 1 1
     0.138256520     0.100000000     0.769017210 1 1 1
     0.151582450     0.100000000     0.782898390 1 1 1
     0.164908380     0.100000000     0.796779570 1 1 1
     0.178234310     0.100000000     0.810660740 1 1 1
     0.191560240     0.100000000     0.824541920 1 1 1
     0.204886170     0.100000000     0.838423100 1 1 1
     0.218212100     0.100000000     0.852304280 1 1 1
     0.231538030     0.100000000     0.866185450 1 1 1
     0.244863960     0.100000000     0.880066630 1 1 1
     0.258189890     0.100000000     0.893947810 1 1 1
     0.271515820     0.100000000     0.907828980 1 1 1
     0.284841750     0.100000000     0.921710160 1 1 1
     0.298167680     0.100000000     0.935591340 1 1 1
     0.311493610     0.100000000     0.949472520 1 1 1
     0.324819540     0.100000000     0.963353690 1 1 1
     0.338145470     0.100000000     0.977234870 1 1 1
     0.351471400     0.100000000     0.991116050 1 1 1
     0.005552470     0.100000000     0.589117160 1 1 1
     0.018878400     0.100000000     0.602998330 1 1 1
     0.032204330     0.100000000     0.616879510 1 1 1
     0.045530260     0.100000000     0.630760690 1 1 1
     0.058856190     0.100000000     0.644641870 1 1 1
     0.072182120     0.100000000     0.658523040 1 1 1
     0.085508050     0.100000000     0.672404220 1 1 1
     0.098833980     0.100000000     0.686285400 1 1 1
     0.112159910     0.100000000     0.700166570 1 1 1
     0.125485840     0.100000000     0.714047750 1 1 1
     0.138811770     0.100000000     0.727928930 1 1 1
     0.152137700     0.100000000     0.741810110 1 1 1
     0.165463630     0.100000000     0.755691280 1 1 1
     0.178789560     0.100000000     0.769572460 1 1 1
     0.192115490     0.100000000     0.783453640 1 1 1
     0.205441420     0.100000000     0.797334810 1 1 1
     0.218767350     0.100000000     0.811215990 1 1 1
     0.232093280     0.100000000     0.825097170 1 1 1
     0.245419210     0.100000000     0.838978350 1 1 1
     0.258745140     0.100000000     0.852859520 1 1 1
     0.272071070     0.100000000     0.866740700 1 1 1
     0.285397000     0.100000000     0.880621880 1 1 1
     0.298722930     0.100000000     0.894503050 1 1 1
     0.312048860     0.100000000     0.908384230 1 1 1
     0.325374790     0.100000000     0.922265410 1 1 1
     0.338700720     0.100000000     0.936146590 1 1 1
     0.352026650     0.100000000     0.950027760 1 1 1
     0.365352580     0.100000000     0.963908940 1 1 1
     0.378678510     0.100000000     0.977790120 1 1 1
     0.392004440     0.100000000     0.991671290 1 1 1
     0.006107720     0.100000000     0.548028870 1 1 1
     0.019433650     0.100000000     0.561910050 1 1 1
     0.032759580     0.100000000     0.575791230 1 1 1
     0.046085510     0.100000000     0.589672400 1 1 1
     0.059411440     0.100000000     0.603553580 1 1 1
     0.072737370     0.100000000     0.617434760 1 1 1
     0.086063300     0.100000000     0.631315940 1 1 1
     0.099389230     0.100000000     0.645197110 1 1 1
     0.112715160     0.100000000     0.659078290 1 1 1
     0.126041090     0.100000000     0.672959470 1 1 1
     0.139367020     0.100000000     0.686840640 1 1 1
     0.152692950     0.100000000     0.700721820 1 1 1
     0.166018880     0.100000000     0.714603000 1 1 1
     0.179344810     0.100000000     0.728484180 1 1 1
     0.192670740     0.100000000     0.742365350 1 1 1
     0.205996670     0.100000000     0.756246530 1 1 1
     0.219322600     0.100000000     0.770127710 1 1 1
     0.232648530     0.100000000     0.784008880 1 1 1
     0.245974460     0.100000000     0.797890060 1 1 1
     0.259300390     0.100000000     0.811771240 1 1 1
     0.272626320     0.100000000     0.825652420 1 1 1
     0.285952250     0.100000000     0.839533590 1 1 1
     0.299278180     0.100000000     0.853414770 1 1 1
     0.312604110     0.100000000     0.867295950 1 1 1
     0.325930040     0.100000000     0.881177120 1 1 1
     0.339255970     0.100000000     0.895058300 1 1 1
     0.352581900     0.100000000     0.908939480 1 1 1
     0.365907830     0.100000000     0.922820660 1 1 1
     0.379233760     0.100000000     0.936701830 1 1 1
     0.392559690     0.100000000     0.950583010 1 1 1
     0.405885620     0.100000000     0.964464190 1 1 1
     0.419211550     0.100000000     0.978345360 1 1 1
     0.432537480     0.100000000     0.992226540 1 1 1
     0.006662970     0.100000000     0.506940590 1 1 1
     0.019988900     0.100000000     0.520821770 1 1 1
     0.033314830     0.100000000     0.534702940 1 1 1
     0.046640760     0.100000000     0.548584120 1 1 1
     0.059966690     0.100000000     0.562465300 1 1 1
     0.073292620     0.100000000     0.576346470 1 1 1
     0.086618550     0.100000000     0.590227650 1 1 1
     0.099944480     0.100000000     0.604108830 1 1 1
     0.113270410     0.100000000     0.617990010 1 1 1
     0.126596340     0.100000000     0.631871180 1 1 1
     0.139922270     0.100000000     0.645752360 1 1 1
     0.153248200     0.100000000     0.659633540 1 1 1
     0.166574130     0.100000000     0.673514710 1 1 1
     0.179900060     0.100000000     0.687395890 1 1 1
     0.193225990     0.100000000     0.701277070 1 1 1
     0.206551920     0.100000000     0.715158250 1 1 1
     0.219877850     0.100000000     0.729039420 1 1 1
     0.233203780     0.100000000     0.742920600 1 1 1
     0.246529710     0.100000000     0.756801780 1 1 1
     0.259855640     0.100000000     0.770682950 1 1 1
     0.273181570     0.100000000     0.784564130 1 1 1
     0.286507500     0.100000000     0.798445310 1 1 1
     0.299833430     0.100000000     0.812326490 1 1 1
     0.313159360     0.100000000     0.826207660 1 1 1
     0.326485290     0.100000000     0.840088840 1 1 1
     0.339811220     0.100000000     0.853970020 1 1 1
     0.353137150     0.100000000     0.867851190 1 1 1
     0.366463080     0.100000000     0.881732370 1 1 1
     0.379789010     0.100000000     0.895613550 1 1 1
     0.393114940     0.100000000     0.909494730 1 1 1
     0.406440870     0.100000000     0.923375900 1 1 1
     0.419766800     0.100000000     0.937257080 1 1 1
     0.433092730     0.100000000     0.951138260 1 1 1
     0.446418660     0.100000000     0.965019430 1 1 1
     0.459744590     0.100000000     0.978900610 1 1 1
     0.473070520     0.100000000     0.992781790 1 1 1
     0.007218210     0.100000000     0.465852300 1 1 1
     0.020544140     0.100000000     0.479733480 1 1 1
     0.033870070     0.100000000     0.493614660 1 1 1
     0.047196000     0.100000000     0.507495840 1 1 1
     0.060521930     0.100000000     0.521377010 1 1 1
     0.073847860     0.100000000     0.535258190 1 1 1
     0.087173790     0.100000000     0.549139370 1 1 1
     0.100499720     0.100000000     0.563020540 1 1 1
     0.113825650     0.100000000     0.576901720 1 1 1
     0.127151580     0.100000000     0.590782900 1 1 1
     0.140477510     0.100000000     0.604664080 1 1 1
     0.153803440     0.100000000     0.618545250 1 1 1
     0.167129370     0.100000000     0.632426430 1 1 1
     0.180455300     0.100000000     0.646307610 1 1 1
     0.193781230     0.100000000     0.660188780 1 1 1
     0.207107160     0.100000000     0.674069960 1 1 1
     0.220433090     0.100000000     0.687951140 1 1 1
     0.233759020     0.100000000     0.701832320 1 1 1
     0.247084950     0.100000000     0.715713490 1 1 1
     0.260410880     0.100000000     0.729594670 1 1 1
     0.273736810     0.100000000     0.743475850 1 1 1
     0.287062740     0.100000000     0.757357020 1 1 1
     0.300388670     0.100000000     0.771238200 1 1 1
     0.313714600     0.100000000     0.785119380 1 1 1
     0.327040530     0.100000000     0.799000560 1 1 1
     0.340366460     0.100000000     0.812881730 1 1 1
     0.353692390     0.100000000     0.826762910 1 1 1
     0.367018320     0.100000000     0.840644090 1 1 1
     0.380344250     0.100000000     0.854525260 1 1 1
     0.393670180     0.100000000     0.868406440 1 1 1
     0.406996110     0.100000000     0.882287620 1 1 1
     0.420322040     0.100000000     0.896168800 1 1 1
     0.433647970     0.100000000     0.910049970 1 1 1
     0.446973900     0.100000000     0.923931150 1 1 1
     0.460299830     0.100000000     0.937812330 1 1 1
     0.473625760     0.100000000     0.951693500 1 1 1
     0.486951690     0.100000000     0.965574680 1 1 1
     0.500277620     0.100000000     0.979455860 1 1 1
     0.513603550     0.100000000     0.993337030 1 1 1
     0.007773460     0.100000000     0.424764020 1 1 1
     0.021099390     0.100000000     0.438645200 1 1 1
     0.034425320     0.100000000     0.452526370 1 1 1
     0.047751250     0.100000000     0.466407550 1 1 1
     0.061077180     0.100000000     0.480288730 1 1 1
     0.074403110     0.100000000     0.494169910 1 1 1
     0.087729040     0.100000000     0.508051080 1 1 1
     0.101054970     0.100000000     0.521932260 1 1 1
     0.114380900     0.100000000     0.535813440 1 1 1
     0.127706830     0.100000000     0.549694610 1 1 1
     0.141032760     0.100000000     0.563575790 1 1 1
     0.154358690     0.100000000     0.577456970 1 1 1
     0.167684620     0.100000000     0.591338150 1 1 1
     0.181010550     0.100000000     0.605219320 1 1 1
     0.194336480     0.100000000     0.619100500 1 1 1
     0.207662410     0.100000000     0.632981680 1 1 1
     0.220988340     0.100000000     0.646862850 1 1 1
     0.234314270     0.100000000     0.660744030 1 1 1
     0.247640200     0.100000000     0.674625210 1 1 1
     0.260966130     0.100000000     0.688506390 1 1 1
     0.274292060     0.100000000     0.702387560 1 1 1
     0.287617990     0.100000000     0.716268740 1 1 1
     0.300943920     0.100000000     0.730149920 1 1 1
     0.314269850     0.100000000     0.744031090 1 1 1
     0.327595780     0.100000000     0.757912270 1 1 1
     0.340921710     0.100000000     0.771793450 1 1 1
     0.354247640     0.100000000     0.785674630 1 1 1
     0.367573570     0.100000000     0.799555800 1 1 1
     0.380899500     0.100000000     0.813436980 1 1 1
     0.394225430     0.100000000     0.827318160 1 1 1
     0.407551360     0.100000000     0.841199330 1 1 1
     0.420877290     0.100000000     0.855080510 1 1 1
     0.434203220     0.100000000     0.868961690 1 1 1
     0.447529150     0.100000000     0.882842870 1 1 1
     0.460855080     0.100000000     0.896724040 1 1 1
     0.474181010     0.100000000     0.910605220 1 1 1
     0.487506940     0.100000000     0.924486400 1 1 1
     0.500832870     0.100000000     0.938367570 1 1 1
     0.514158800     0.100000000     0.952248750 1 1 1
     0.527484730     0.100000000     0.966129930 1 1 1
     0.540810660     0.100000000     0.980011100 1 1 1
     0.554136590     0.100000000     0.993892280 1 1 1
     0.008328710     0.100000000     0.383675740 1 1 1
     0.021654640     0.100000000     0.397556910 1 1 1
     0.034980570     0.100000000     0.411438090 1 1 1
     0.048306500     0.100000000     0.425319270 1 1 1
     0.061632430     0.100000000     0.439200440 1 1 1
     0.074958360     0.100000000     0.453081620 1 1 1
     0.088284290     0.100000000     0.466962800 1 1 1
     0.101610220     0.100000000     0.480843980 1 1 1
     0.114936150     0.100000000     0.494725150 1 1 1
     0.128262080     0.100000000     0.508606330 1 1 1
     0.141588010     0.100000000     0.522487510 1 1 1
     0.154913940     0.100000000     0.536368680 1 1 1
     0.168239870     0.100000000     0.550249860 1 1 1
     0.181565800     0.100000000     0.564131040 1 1 1
     0.194891730     0.100000000     0.578012220 1 1 1
     0.208217660     0.100000000     0.591893390 1 1 1
     0.221543590     0.100000000     0.605774570 1 1 1
     0.234869520     0.100000000     0.619655750 1 1 1
     0.248195450     0.100000000     0.633536920 1 1 1
     0.261521380     0.100000000     0.647418100 1 1 1
     0.274847310     0.100000000     0.661299280 1 1 1
     0.288173240     0.100000000     0.675180460 1 1 1
     0.301499170     0.100000000     0.689061630 1 1 1
     0.314825100     0.100000000     0.702942810 1 1 1
     0.328151030     0.100000000     0.716823990 1 1 1
     0.341476960     0.100000000     0.730705160 1 1 1
     0.354802890     0.100000000     0.744586340 1 1 1
     0.368128820     0.100000000     0.758467520 1 1 1
     0.381454750     0.100000000     0.772348700 1 1 1
     0.394780680     0.100000000     0.786229870 1 1 1
     0.408106610     0.100000000     0.800111050 1 1 1
     0.421432540     0.100000000     0.813992230 1 1 1
     0.434758470     0.100000000     0.827873400 1 1 1
     0.448084400     0.100000000     0.841754580 1 1 1
     0.461410330     0.100000000     0.855635760 1 1 1
     0.474736260     0.100000000     0.869516940 1 1 1
     0.488062190     0.100000000     0.883398110 1 1 1
     0.501388120     0.100000000     0.897279290 1 1 1
     0.514714050     0.100000000     0.911160470 1 1 1
     0.528039980     0.100000000     0.925041640 1 1 1
     0.541365910     0.100000000     0.938922820 1 1 1
     0.554691840     0.100000000     0.952804000 1 1 1
     0.568017770     0.100000000     0.966685170 1 1 1
     0.581343700     0.100000000     0.980566350 1 1 1
     0.594669630     0.100000000     0.994447530 1 1 1
     0.008883950     0.100000000     0.342587450 1 1 1
     0.022209880     0.100000000     0.356468630 1 1 1
     0.035535810     0.100000000     0.370349810 1 1 1
     0.048861740     0.100000000     0.384230980 1 1 1
     0.062187670     0.100000000     0.398112160 1 1 1
     0.075513600     0.100000000     0.411993340 1 1 1
     0.088839530     0.100000000     0.425874510 1 1 1
     0.102165460     0.100000000     0.439755690 1 1 1
     0.115491390     0.100000000     0.453636870 1 1 1
     0.128817320     0.100000000     0.467518050 1 1 1
     0.142143250     0.100000000     0.481399220 1 1 1
     0.155469180     0.100000000     0.495280400 1 1 1
     0.168795110     0.100000000     0.509161580 1 1 1
     0.182121040     0.100000000     0.523042750 1 1 1
     0.195446970     0.100000000     0.536923930 1 1 1
     0.208772900     0.100000000     0.550805110 1 1 1
     0.222098830     0.100000000     0.564686290 1 1 1
     0.235424760     0.100000000     0.578567460 1 1 1
     0.248750690     0.100000000     0.592448640 1 1 1
     0.262076620     0.100000000     0.606329820 1 1 1
     0.275402550     0.100000000     0.620210990 1 1 1
     0.288728480     0.100000000     0.634092170 1 1 1
     0.302054410     0.100000000     0.647973350 1 1 1
     0.315380340     0.100000000     0.661854530 1 1 1
     0.328706270     0.100000000     0.675735700 1 1 1
     0.342032200     0.100000000     0.689616880 1 1 1
     0.355358130     0.100000000     0.703498060 1 1 1
     0.368684060     0.100000000     0.717379230 1 1 1
     0.382009990     0.100000000     0.731260410 1 1 1
     0.395335920     0.100000000     0.745141590 1 1 1
     0.408661850     0.100000000     0.759022770 1 1 1
     0.421987780     0.100000000     0.772903940 1 1 1
     0.435313710     0.100000000     0.786785120 1 1 1
     0.448639640     0.100000000     0.800666300 1 1 1
     0.461965570     0.100000000     0.814547470 1 1 1
     0.475291500     0.100000000     0.828428650 1 1 1
     0.488617430     0.100000000     0.842309830 1 1 1
     0.501943360     0.100000000     0.856191000 1 1 1
     0.515269290     0.100000000     0.870072180 1 1 1
     0.528595220     0.100000000     0.883953360 1 1 1
     0.541921150     0.100000000     0.897834540 1 1 1
     0.555247080     0.100000000     0.911715710 1 1 1
     0.568573010     0.100000000     0.925596890 1 1 1
     0.581898950     0.100000000     0.939478070 1 1 1
     0.595224880     0.100000000     0.953359240 1 1 1
     0.608550810     0.100000000     0.967240420 1 1 1
     0.621876740     0.100000000     0.981121600 1 1 1
     0.635202670     0.100000000     0.995002780 1 1 1
     0.009439200     0.100000000     0.301499170 1 1 1
     0.022765130     0.100000000     0.315380340 1 1 1
     0.036091060     0.100000000     0.329261520 1 1 1
     0.049416990     0.100000000     0.343142700 1 1 1
     0.062742920     0.100000000     0.357023880 1 1 1
     0.076068850     0.100000000     0.370905050 1 1 1
     0.089394780     0.100000000     0.384786230 1 1 1
     0.102720710     0.100000000     0.398667410 1 1 1
     0.116046640     0.100000000     0.412548580 1 1 1
     0.129372570     0.100000000     0.426429760 1 1 1
     0.142698500     0.100000000     0.440310940 1 1 1
     0.156024430     0.100000000     0.454192120 1 1 1
     0.169350360     0.100000000     0.468073290 1 1 1
     0.182676290     0.100000000     0.481954470 1 1 1
     0.196002220     0.100000000     0.495835650 1 1 1
     0.209328150     0.100000000     0.509716820 1 1 1
     0.222654080     0.100000000     0.523598000 1 1 1
     0.235980010     0.100000000     0.537479180 1 1 1
     0.249305940     0.100000000     0.551360360 1 1 1
     0.262631870     0.100000000     0.565241530 1 1 1
     0.275957800     0.100000000     0.579122710 1 1 1
     0.289283730     0.100000000     0.593003890 1 1 1
     0.302609660     0.100000000     0.606885060 1 1 1
     0.315935590     0.100000000     0.620766240 1 1 1
     0.329261520     0.100000000     0.634647420 1 1 1
     0.342587450     0.100000000     0.648528600 1 1 1
     0.355913380     0.100000000     0.662409770 1 1 1
     0.369239310     0.100000000     0.676290950 1 1 1
     0.382565240     0.100000000     0.690172130 1 1 1
     0.395891170     0.100000000     0.704053300 1 1 1
     0.409217100     0.100000000     0.717934480 1 1 1
     0.422543030     0.100000000     0.731815660 1 1 1
     0.435868960     0.100000000     0.745696840 1 1 1
     0.449194890     0.100000000     0.759578010 1 1 1
     0.462520820     0.100000000     0.773459190 1 1 1
     0.475846750     0.100000000     0.787340370 1 1 1
     0.489172680     0.100000000     0.801221540 1 1 1
     0.502498610     0.100000000     0.815102720 1 1 1
     0.515824540     0.100000000     0.828983900 1 1 1
     0.529150470     0.100000000     0.842865070 1 1 1
     0.542476400     0.100000000     0.856746250 1 1 1
     0.555802330     0.100000000     0.870627430 1 1 1
     0.569128260     0.100000000     0.884508610 1 1 1
     0.582454190     0.100000000     0.898389780 1 1 1
     0.595780120     0.100000000     0.912270960 1 1 1
     0.609106050     0.100000000     0.926152140 1 1 1
     0.622431980     0.100000000     0.940033310 1 1 1
     0.635757910     0.100000000     0.953914490 1 1 1
     0.649083840     0.100000000     0.967795670 1 1 1
     0.662409770     0.100000000     0.981676850 1 1 1
     0.675735700     0.100000000     0.995558020 1 1 1
     0.009994450     0.100000000     0.260410880 1 1 1
     0.023320380     0.100000000     0.274292060 1 1 1
     0.036646310     0.100000000     0.288173240 1 1 1
     0.049972240     0.100000000     0.302054410 1 1 1
     0.063298170     0.100000000     0.315935590 1 1 1
     0.076624100     0.100000000     0.329816770 1 1 1
     0.089950030     0.100000000     0.343697950 1 1 1
     0.103275960     0.100000000     0.357579120 1 1 1
     0.116601890     0.100000000     0.371460300 1 1 1
     0.129927820     0.100000000     0.385341480 1 1 1
     0.143253750     0.100000000     0.399222650 1 1 1
     0.156579680     0.100000000     0.413103830 1 1 1
     0.169905610     0.100000000     0.426985010 1 1 1
     0.183231540     0.100000000     0.440866190 1 1 1
     0.196557470     0.100000000     0.454747360 1 1 1
     0.209883400     0.100000000     0.468628540 1 1 1
     0.223209330     0.100000000     0.482509720 1 1 1
     0.236535260     0.100000000     0.496390890 1 1 1
     0.249861190     0.100000000     0.510272070 1 1 1
     0.263187120     0.100000000     0.524153250 1 1 1
     0.276513050     0.100000000     0.538034430 1 1 1
     0.289838980     0.100000000     0.551915600 1 1 1
     0.303164910     0.100000000     0.565796780 1 1 1
     0.316490840     0.100000000     0.579677960 1 1 1
     0.329816770     0.100000000     0.593559130 1 1 1
     0.343142700     0.100000000     0.607440310 1 1 1
     0.356468630     0.100000000     0.621321490 1 1 1
     0.369794560     0.100000000     0.635202670 1 1 1
     0.383120490     0.100000000     0.649083840 1 1 1
     0.396446420     0.100000000     0.662965020 1 1 1
     0.409772350     0.100000000     0.676846200 1 1 1
     0.423098280     0.100000000     0.690727370 1 1 1
     0.436424210     0.100000000     0.704608550 1 1 1
     0.449750140     0.100000000     0.718489730 1 1 1
     0.463076070     0.100000000     0.732370910 1 1 1
     0.476402000     0.100000000     0.746252080 1 1 1
     0.489727930     0.100000000     0.760133260 1 1 1
     0.503053860     0.100000000     0.774014440 1 1 1
     0.516379790     0.100000000     0.787895610 1 1 1
     0.529705720     0.100000000     0.801776790 1 1 1
     0.543031650     0.100000000     0.815657970 1 1 1
     0.556357580     0.100000000     0.829539140 1 1 1
     0.569683510     0.100000000     0.843420320 1 1 1
     0.583009440     0.100000000     0.857301500 1 1 1
     0.596335370     0.100000000     0.871182680 1 1 1
     0.609661300     0.100000000     0.885063850 1 1 1
     0.622987230     0.100000000     0.898945030 1 1 1
     0.636313160     0.100000000     0.912826210 1 1 1
     0.649639090     0.100000000     0.926707380 1 1 1
     0.662965020     0.100000000     0.940588560 1 1 1
     0.676290950     0.100000000     0.954469740 1 1 1
     0.689616880     0.100000000     0.968350920 1 1 1
     0.702942810     0.100000000     0.982232090 1 1 1
     0.716268740     0.100000000     0.996113270 1 1 1
     0.010549690     0.100000000     0.219322600 1 1 1
     0.023875620     0.100000000     0.233203780 1 1 1
     0.037201550     0.100000000     0.247084950 1 1 1
     0.050527480     0.100000000     0.260966130 1 1 1
     0.063853410     0.100000000     0.274847310 1 1 1
     0.077179340     0.100000000     0.288728480 1 1 1
     0.090505270     0.100000000     0.302609660 1 1 1
     0.103831200     0.100000000     0.316490840 1 1 1
     0.117157130     0.100000000     0.330372020 1 1 1
     0.130483060     0.100000000     0.344253190 1 1 1
     0.143809000     0.100000000     0.358134370 1 1 1
     0.157134930     0.100000000     0.372015550 1 1 1
     0.170460860     0.100000000     0.385896720 1 1 1
     0.183786790     0.100000000     0.399777900 1 1 1
     0.197112720     0.100000000     0.413659080 1 1 1
     0.210438650     0.100000000     0.427540260 1 1 1
     0.223764580     0.100000000     0.441421430 1 1 1
     0.237090510     0.100000000     0.455302610 1 1 1
     0.250416440     0.100000000     0.469183790 1 1 1
     0.263742370     0.100000000     0.483064960 1 1 1
     0.277068300     0.100000000     0.496946140 1 1 1
     0.290394230     0.100000000     0.510827320 1 1 1
     0.303720160     0.100000000     0.524708500 1 1 1
     0.317046090     0.100000000     0.538589670 1 1 1
     0.330372020     0.100000000     0.552470850 1 1 1
     0.343697950     0.100000000     0.566352030 1 1 1