ATOMIC_SPECIES
C 6.000 /mnt/C_ONCV_PBE-1.0.upf

NUMERICAL_ORBITAL
/mnt/C_gga_8au_100Ry_2s2p1d.orb

LATTICE_CONSTANT
1.889716

LATTICE_VECTORS
       91.00150000       51.11974753       0.00000000
       1.22975000       104.36948455       0.00000000
       0.00000000       0.00000000       30.00000000

ATOMIC_POSITIONS
Direct

C
0.0
7204
     0.00055525     0.95891172     0.10000000 1 1 1
     0.01388118     0.97279289     0.10000000 1 1 1
     0.02720711     0.98667407     0.10000000 1 1 1
     0.00111049     0.91782343     0.10000000 1 1 1
     0.01443642     0.93170461     0.10000000 1 1 1
     0.02776235     0.94558579     0.10000000 1 1 1
     0.04108828     0.95946696     0.10000000 1 1 1
     0.05441421     0.97334814     0.10000000 1 1 1
     0.06774014     0.98722932     0.10000000 1 1 1
     0.00166574     0.87673515     0.10000000 1 1 1
     0.01499167     0.89061632     0.10000000 1 1 1
     0.02831760     0.90449750     0.10000000 1 1 1
     0.04164353     0.91837868     0.10000000 1 1 1
     0.05496946     0.93225986     0.10000000 1 1 1
     0.06829539     0.94614103     0.10000000 1 1 1
     0.08162132     0.96002221     0.10000000 1 1 1
     0.09494725     0.97390339     0.10000000 1 1 1
     0.10827318     0.98778456     0.10000000 1 1 1
     0.00222099     0.83564686     0.10000000 1 1 1
     0.01554692     0.84952804     0.10000000 1 1 1
     0.02887285     0.86340922     0.10000000 1 1 1
     0.04219878     0.87729039     0.10000000 1 1 1
     0.05552471     0.89117157     0.10000000 1 1 1
     0.06885064     0.90505275     0.10000000 1 1 1
     0.08217657     0.91893393     0.10000000 1 1 1
     0.09550250     0.93281510     0.10000000 1 1 1
     0.10882843     0.94669628     0.10000000 1 1 1
     0.12215436     0.96057746     0.10000000 1 1 1
     0.13548029     0.97445863     0.10000000 1 1 1
     0.14880622     0.98833981     0.10000000 1 1 1
     0.00277624     0.79455858     0.10000000 1 1 1
     0.01610217     0.80843976     0.10000000 1 1 1
     0.02942810     0.82232093     0.10000000 1 1 1
     0.04275403     0.83620211     0.10000000 1 1 1
     0.05607996     0.85008329     0.10000000 1 1 1
     0.06940589     0.86396446     0.10000000 1 1 1
     0.08273182     0.87784564     0.10000000 1 1 1
     0.09605775     0.89172682     0.10000000 1 1 1
     0.10938368     0.90560800     0.10000000 1 1 1
     0.12270961     0.91948917     0.10000000 1 1 1
     0.13603554     0.93337035     0.10000000 1 1 1
     0.14936147     0.94725153     0.10000000 1 1 1
     0.16268740     0.96113270     0.10000000 1 1 1
     0.17601333     0.97501388     0.10000000 1 1 1
     0.18933926     0.98889506     0.10000000 1 1 1
     0.00333148     0.75347029     0.10000000 1 1 1
     0.01665741     0.76735147     0.10000000 1 1 1
     0.02998334     0.78123265     0.10000000 1 1 1
     0.04330927     0.79511383     0.10000000 1 1 1
     0.05663520     0.80899500     0.10000000 1 1 1
     0.06996113     0.82287618     0.10000000 1 1 1
     0.08328706     0.83675736     0.10000000 1 1 1
     0.09661299     0.85063853     0.10000000 1 1 1
     0.10993892     0.86451971     0.10000000 1 1 1
     0.12326485     0.87840089     0.10000000 1 1 1
     0.13659078     0.89228207     0.10000000 1 1 1
     0.14991671     0.90616324     0.10000000 1 1 1
     0.16324264     0.92004442     0.10000000 1 1 1
     0.17656857     0.93392560     0.10000000 1 1 1
     0.18989450     0.94780677     0.10000000 1 1 1
     0.20322043     0.96168795     0.10000000 1 1 1
     0.21654636     0.97556913     0.10000000 1 1 1
     0.22987229     0.98945031     0.10000000 1 1 1
     0.00388673     0.71238201     0.10000000 1 1 1
     0.01721266     0.72626319     0.10000000 1 1 1
     0.03053859     0.74014436     0.10000000 1 1 1
     0.04386452     0.75402554     0.10000000 1 1 1
     0.05719045     0.76790672     0.10000000 1 1 1
     0.07051638     0.78178790     0.10000000 1 1 1
     0.08384231     0.79566907     0.10000000 1 1 1
     0.09716824     0.80955025     0.10000000 1 1 1
     0.11049417     0.82343143     0.10000000 1 1 1
     0.12382010     0.83731260     0.10000000 1 1 1
     0.13714603     0.85119378     0.10000000 1 1 1
     0.15047196     0.86507496     0.10000000 1 1 1
     0.16379789     0.87895614     0.10000000 1 1 1
     0.17712382     0.89283731     0.10000000 1 1 1
     0.19044975     0.90671849     0.10000000 1 1 1
     0.20377568     0.92059967     0.10000000 1 1 1
     0.21710161     0.93448084     0.10000000 1 1 1
     0.23042754     0.94836202     0.10000000 1 1 1
     0.24375347     0.96224320     0.10000000 1 1 1
     0.25707940     0.97612438     0.10000000 1 1 1
     0.27040533     0.99000555     0.10000000 1 1 1
     0.00444198     0.67129373     0.10000000 1 1 1
     0.01776791     0.68517490     0.10000000 1 1 1
     0.03109384     0.69905608     0.10000000 1 1 1
     0.04441977     0.71293726     0.10000000 1 1 1
     0.05774570     0.72681843     0.10000000 1 1 1
     0.07107163     0.74069961     0.10000000 1 1 1
     0.08439756     0.75458079     0.10000000 1 1 1
     0.09772349     0.76846197     0.10000000 1 1 1
     0.11104942     0.78234314     0.10000000 1 1 1
     0.12437535     0.79622432     0.10000000 1 1 1
     0.13770128     0.81010550     0.10000000 1 1 1
     0.15102721     0.82398667     0.10000000 1 1 1
     0.16435314     0.83786785     0.10000000 1 1 1
     0.17767907     0.85174903     0.10000000 1 1 1
     0.19100500     0.86563021     0.10000000 1 1 1
     0.20433093     0.87951138     0.10000000 1 1 1
     0.21765686     0.89339256     0.10000000 1 1 1
     0.23098279     0.90727374     0.10000000 1 1 1
     0.24430872     0.92115491     0.10000000 1 1 1
     0.25763465     0.93503609     0.10000000 1 1 1
     0.27096058     0.94891727     0.10000000 1 1 1
     0.28428651     0.96279845     0.10000000 1 1 1
     0.29761244     0.97667962     0.10000000 1 1 1
     0.31093837     0.99056080     0.10000000 1 1 1
     0.00499722     0.63020544     0.10000000 1 1 1
     0.01832315     0.64408662     0.10000000 1 1 1
     0.03164908     0.65796780     0.10000000 1 1 1
     0.04497501     0.67184897     0.10000000 1 1 1
     0.05830094     0.68573015     0.10000000 1 1 1
     0.07162687     0.69961133     0.10000000 1 1 1
     0.08495280     0.71349250     0.10000000 1 1 1
     0.09827873     0.72737368     0.10000000 1 1 1
     0.11160466     0.74125486     0.10000000 1 1 1
     0.12493059     0.75513604     0.10000000 1 1 1
     0.13825652     0.76901721     0.10000000 1 1 1
     0.15158245     0.78289839     0.10000000 1 1 1
     0.16490838     0.79677957     0.10000000 1 1 1
     0.17823431     0.81066074     0.10000000 1 1 1
     0.19156024     0.82454192     0.10000000 1 1 1
     0.20488617     0.83842310     0.10000000 1 1 1
     0.21821210     0.85230428     0.10000000 1 1 1
     0.23153803     0.86618545     0.10000000 1 1 1
     0.24486396     0.88006663     0.10000000 1 1 1
     0.25818989     0.89394781     0.10000000 1 1 1
     0.27151582     0.90782898     0.10000000 1 1 1
     0.28484175     0.92171016     0.10000000 1 1 1
     0.29816768     0.93559134     0.10000000 1 1 1
     0.31149361     0.94947252     0.10000000 1 1 1
     0.32481954     0.96335369     0.10000000 1 1 1
     0.33814547     0.97723487     0.10000000 1 1 1
     0.35147140     0.99111605     0.10000000 1 1 1
     0.00555247     0.58911716     0.10000000 1 1 1
     0.01887840     0.60299833     0.10000000 1 1 1
     0.03220433     0.61687951     0.10000000 1 1 1
     0.04553026     0.63076069     0.10000000 1 1 1
     0.05885619     0.64464187     0.10000000 1 1 1
     0.07218212     0.65852304     0.10000000 1 1 1
     0.08550805     0.67240422     0.10000000 1 1 1
     0.09883398     0.68628540     0.10000000 1 1 1
     0.11215991     0.70016657     0.10000000 1 1 1
     0.12548584     0.71404775     0.10000000 1 1 1
     0.13881177     0.72792893     0.10000000 1 1 1
     0.15213770     0.74181011     0.10000000 1 1 1
     0.16546363     0.75569128     0.10000000 1 1 1
     0.17878956     0.76957246     0.10000000 1 1 1
     0.19211549     0.78345364     0.10000000 1 1 1
     0.20544142     0.79733481     0.10000000 1 1 1
     0.21876735     0.81121599     0.10000000 1 1 1
     0.23209328     0.82509717     0.10000000 1 1 1
     0.24541921     0.83897835     0.10000000 1 1 1
     0.25874514     0.85285952     0.10000000 1 1 1
     0.27207107     0.86674070     0.10000000 1 1 1
     0.28539700     0.88062188     0.10000000 1 1 1
     0.29872293     0.89450305     0.10000000 1 1 1
     0.31204886     0.90838423     0.10000000 1 1 1
     0.32537479     0.92226541     0.10000000 1 1 1
     0.33870072     0.93614659     0.10000000 1 1 1
     0.35202665     0.95002776     0.10000000 1 1 1
     0.36535258     0.96390894     0.10000000 1 1 1
     0.37867851     0.97779012     0.10000000 1 1 1
     0.39200444     0.99167129     0.10000000 1 1 1
     0.00610772     0.54802887     0.10000000 1 1 1
     0.01943365     0.56191005     0.10000000 1 1 1
     0.03275958     0.57579123     0.10000000 1 1 1
     0.04608551     0.58967240     0.10000000 1 1 1
     0.05941144     0.60355358     0.10000000 1 1 1
     0.07273737     0.61743476     0.10000000 1 1 1
     0.08606330     0.63131594     0.10000000 1 1 1
     0.09938923     0.64519711     0.10000000 1 1 1
     0.11271516     0.65907829     0.10000000 1 1 1
     0.12604109     0.67295947     0.10000000 1 1 1
     0.13936702     0.68684064     0.10000000 1 1 1
     0.15269295     0.70072182     0.10000000 1 1 1
     0.16601888     0.71460300     0.10000000 1 1 1
     0.17934481     0.72848418     0.10000000 1 1 1
     0.19267074     0.74236535     0.10000000 1 1 1
     0.20599667     0.75624653     0.10000000 1 1 1
     0.21932260     0.77012771     0.10000000 1 1 1
     0.23264853     0.78400888     0.10000000 1 1 1
     0.24597446     0.79789006     0.10000000 1 1 1
     0.25930039     0.81177124     0.10000000 1 1 1
     0.27262632     0.82565242     0.10000000 1 1 1
     0.28595225     0.83953359     0.10000000 1 1 1
     0.29927818     0.85341477     0.10000000 1 1 1
     0.31260411     0.86729595     0.10000000 1 1 1
     0.32593004     0.88117712     0.10000000 1 1 1
     0.33925597     0.89505830     0.10000000 1 1 1
     0.35258190     0.90893948     0.10000000 1 1 1
     0.36590783     0.92282066     0.10000000 1 1 1
     0.37923376     0.93670183     0.10000000 1 1 1
     0.39255969     0.95058301     0.10000000 1 1 1
     0.40588562     0.96446419     0.10000000 1 1 1
     0.41921155     0.97834536     0.10000000 1 1 1
     0.43253748     0.99222654     0.10000000 1 1 1
     0.00666297     0.50694059     0.10000000 1 1 1
     0.01998890     0.52082177     0.10000000 1 1 1
     0.03331483     0.53470294     0.10000000 1 1 1
     0.04664076     0.54858412     0.10000000 1 1 1
     0.05996669     0.56246530     0.10000000 1 1 1
     0.07329262     0.57634647     0.10000000 1 1 1
     0.08661855     0.59022765     0.10000000 1 1 1
     0.09994448     0.60410883     0.10000000 1 1 1
     0.11327041     0.61799001     0.10000000 1 1 1
     0.12659634     0.63187118     0.10000000 1 1 1
     0.13992227     0.64575236     0.10000000 1 1 1
     0.15324820     0.65963354     0.10000000 1 1 1
     0.16657413     0.67351471     0.10000000 1 1 1
     0.17990006     0.68739589     0.10000000 1 1 1
     0.19322599     0.70127707     0.10000000 1 1 1
     0.20655192     0.71515825     0.10000000 1 1 1
     0.21987785     0.72903942     0.10000000 1 1 1
     0.23320378     0.74292060     0.10000000 1 1 1
     0.24652971     0.75680178     0.10000000 1 1 1
     0.25985564     0.77068295     0.10000000 1 1 1
     0.27318157     0.78456413     0.10000000 1 1 1
     0.28650750     0.79844531     0.10000000 1 1 1
     0.29983343     0.81232649     0.10000000 1 1 1
     0.31315936     0.82620766     0.10000000 1 1 1
     0.32648529     0.84008884     0.10000000 1 1 1
     0.33981122     0.85397002     0.10000000 1 1 1
     0.35313715     0.86785119     0.10000000 1 1 1
     0.36646308     0.88173237     0.10000000 1 1 1
     0.37978901     0.89561355     0.10000000 1 1 1
     0.39311494     0.90949473     0.10000000 1 1 1
     0.40644087     0.92337590     0.10000000 1 1 1
     0.41976680     0.93725708     0.10000000 1 1 1
     0.43309273     0.95113826     0.10000000 1 1 1
     0.44641866     0.96501943     0.10000000 1 1 1
     0.45974459     0.97890061     0.10000000 1 1 1
     0.47307052     0.99278179     0.10000000 1 1 1
     0.00721821     0.46585230     0.10000000 1 1 1
     0.02054414     0.47973348     0.10000000 1 1 1
     0.03387007     0.49361466     0.10000000 1 1 1
     0.04719600     0.50749584     0.10000000 1 1 1
     0.06052193     0.52137701     0.10000000 1 1 1
     0.07384786     0.53525819     0.10000000 1 1 1
     0.08717379     0.54913937     0.10000000 1 1 1
     0.10049972     0.56302054     0.10000000 1 1 1
     0.11382565     0.57690172     0.10000000 1 1 1
     0.12715158     0.59078290     0.10000000 1 1 1
     0.14047751     0.60466408     0.10000000 1 1 1
     0.15380344     0.61854525     0.10000000 1 1 1
     0.16712937     0.63242643     0.10000000 1 1 1
     0.18045530     0.64630761     0.10000000 1 1 1
     0.19378123     0.66018878     0.10000000 1 1 1
     0.20710716     0.67406996     0.10000000 1 1 1
     0.22043309     0.68795114     0.10000000 1 1 1
     0.23375902     0.70183232     0.10000000 1 1 1
     0.24708495     0.71571349     0.10000000 1 1 1
     0.26041088     0.72959467     0.10000000 1 1 1
     0.27373681     0.74347585     0.10000000 1 1 1
     0.28706274     0.75735702     0.10000000 1 1 1
     0.30038867     0.77123820     0.10000000 1 1 1
     0.31371460     0.78511938     0.10000000 1 1 1
     0.32704053     0.79900056     0.10000000 1 1 1
     0.34036646     0.81288173     0.10000000 1 1 1
     0.35369239     0.82676291     0.10000000 1 1 1
     0.36701832     0.84064409     0.10000000 1 1 1
     0.38034425     0.85452526     0.10000000 1 1 1
     0.39367018     0.86840644     0.10000000 1 1 1
     0.40699611     0.88228762     0.10000000 1 1 1
     0.42032204     0.89616880     0.10000000 1 1 1
     0.43364797     0.91004997     0.10000000 1 1 1
     0.44697390     0.92393115     0.10000000 1 1 1
     0.46029983     0.93781233     0.10000000 1 1 1
     0.47362576     0.95169350     0.10000000 1 1 1
     0.48695169     0.96557468     0.10000000 1 1 1
     0.50027762     0.97945586     0.10000000 1 1 1
     0.51360355     0.99333703     0.10000000 1 1 1
     0.00777346     0.42476402     0.10000000 1 1 1
     0.02109939     0.43864520     0.10000000 1 1 1
     0.03442532     0.45252637     0.10000000 1 1 1
     0.04775125     0.46640755     0.10000000 1 1 1
     0.06107718     0.48028873     0.10000000 1 1 1
     0.07440311     0.49416991     0.10000000 1 1 1
     0.08772904     0.50805108     0.10000000 1 1 1
     0.10105497     0.52193226     0.10000000 1 1 1
     0.11438090     0.53581344     0.10000000 1 1 1
     0.12770683     0.54969461     0.10000000 1 1 1
     0.14103276     0.56357579     0.10000000 1 1 1
     0.15435869     0.57745697     0.10000000 1 1 1
     0.16768462     0.59133815     0.10000000 1 1 1
     0.18101055     0.60521932     0.10000000 1 1 1
     0.19433648     0.61910050     0.10000000 1 1 1
     0.20766241     0.63298168     0.10000000 1 1 1
     0.22098834     0.64686285     0.10000000 1 1 1
     0.23431427     0.66074403     0.10000000 1 1 1
     0.24764020     0.67462521     0.10000000 1 1 1
     0.26096613     0.68850639     0.10000000 1 1 1
     0.27429206     0.70238756     0.10000000 1 1 1
     0.28761799     0.71626874     0.10000000 1 1 1
     0.30094392     0.73014992     0.10000000 1 1 1
     0.31426985     0.74403109     0.10000000 1 1 1
     0.32759578     0.75791227     0.10000000 1 1 1
     0.34092171     0.77179345     0.10000000 1 1 1
     0.35424764     0.78567463     0.10000000 1 1 1
     0.36757357     0.79955580     0.10000000 1 1 1
     0.38089950     0.81343698     0.10000000 1 1 1
     0.39422543     0.82731816     0.10000000 1 1 1
     0.40755136     0.84119933     0.10000000 1 1 1
     0.42087729     0.85508051     0.10000000 1 1 1
     0.43420322     0.86896169     0.10000000 1 1 1
     0.44752915     0.88284287     0.10000000 1 1 1
     0.46085508     0.89672404     0.10000000 1 1 1
     0.47418101     0.91060522     0.10000000 1 1 1
     0.48750694     0.92448640     0.10000000 1 1 1
     0.50083287     0.93836757     0.10000000 1 1 1
     0.51415880     0.95224875     0.10000000 1 1 1
     0.52748473     0.96612993     0.10000000 1 1 1
     0.54081066     0.98001110     0.10000000 1 1 1
     0.55413659     0.99389228     0.10000000 1 1 1
     0.00832871     0.38367574     0.10000000 1 1 1
     0.02165464     0.39755691     0.10000000 1 1 1
     0.03498057     0.41143809     0.10000000 1 1 1
     0.04830650     0.42531927     0.10000000 1 1 1
     0.06163243     0.43920044     0.10000000 1 1 1
     0.07495836     0.45308162     0.10000000 1 1 1
     0.08828429     0.46696280     0.10000000 1 1 1
     0.10161022     0.48084398     0.10000000 1 1 1
     0.11493615     0.49472515     0.10000000 1 1 1
     0.12826208     0.50860633     0.10000000 1 1 1
     0.14158801     0.52248751     0.10000000 1 1 1
     0.15491394     0.53636868     0.10000000 1 1 1
     0.16823987     0.55024986     0.10000000 1 1 1
     0.18156580     0.56413104     0.10000000 1 1 1
     0.19489173     0.57801222     0.10000000 1 1 1
     0.20821766     0.59189339     0.10000000 1 1 1
     0.22154359     0.60577457     0.10000000 1 1 1
     0.23486952     0.61965575     0.10000000 1 1 1
     0.24819545     0.63353692     0.10000000 1 1 1
     0.26152138     0.64741810     0.10000000 1 1 1
     0.27484731     0.66129928     0.10000000 1 1 1
     0.28817324     0.67518046     0.10000000 1 1 1
     0.30149917     0.68906163     0.10000000 1 1 1
     0.31482510     0.70294281     0.10000000 1 1 1
     0.32815103     0.71682399     0.10000000 1 1 1
     0.34147696     0.73070516     0.10000000 1 1 1
     0.35480289     0.74458634     0.10000000 1 1 1
     0.36812882     0.75846752     0.10000000 1 1 1
     0.38145475     0.77234870     0.10000000 1 1 1
     0.39478068     0.78622987     0.10000000 1 1 1
     0.40810661     0.80011105     0.10000000 1 1 1
     0.42143254     0.81399223     0.10000000 1 1 1
     0.43475847     0.82787340     0.10000000 1 1 1
     0.44808440     0.84175458     0.10000000 1 1 1
     0.46141033     0.85563576     0.10000000 1 1 1
     0.47473626     0.86951694     0.10000000 1 1 1
     0.48806219     0.88339811     0.10000000 1 1 1
     0.50138812     0.89727929     0.10000000 1 1 1
     0.51471405     0.91116047     0.10000000 1 1 1
     0.52803998     0.92504164     0.10000000 1 1 1
     0.54136591     0.93892282     0.10000000 1 1 1
     0.55469184     0.95280400     0.10000000 1 1 1
     0.56801777     0.96668517     0.10000000 1 1 1
     0.58134370     0.98056635     0.10000000 1 1 1
     0.59466963     0.99444753     0.10000000 1 1 1
     0.00888395     0.34258745     0.10000000 1 1 1
     0.02220988     0.35646863     0.10000000 1 1 1
     0.03553581     0.37034981     0.10000000 1 1 1
     0.04886174     0.38423098     0.10000000 1 1 1
     0.06218767     0.39811216     0.10000000 1 1 1
     0.07551360     0.41199334     0.10000000 1 1 1
     0.08883953     0.42587451     0.10000000 1 1 1
     0.10216546     0.43975569     0.10000000 1 1 1
     0.11549139     0.45363687     0.10000000 1 1 1
     0.12881732     0.46751805     0.10000000 1 1 1
     0.14214325     0.48139922     0.10000000 1 1 1
     0.15546918     0.49528040     0.10000000 1 1 1
     0.16879511     0.50916158     0.10000000 1 1 1
     0.18212104     0.52304275     0.10000000 1 1 1
     0.19544697     0.53692393     0.10000000 1 1 1
     0.20877290     0.55080511     0.10000000 1 1 1
     0.22209883     0.56468629     0.10000000 1 1 1
     0.23542476     0.57856746     0.10000000 1 1 1
     0.24875069     0.59244864     0.10000000 1 1 1
     0.26207662     0.60632982     0.10000000 1 1 1
     0.27540255     0.62021099     0.10000000 1 1 1
     0.28872848     0.63409217     0.10000000 1 1 1
     0.30205441     0.64797335     0.10000000 1 1 1
     0.31538034     0.66185453     0.10000000 1 1 1
     0.32870627     0.67573570     0.10000000 1 1 1
     0.34203220     0.68961688     0.10000000 1 1 1
     0.35535813     0.70349806     0.10000000 1 1 1
     0.36868406     0.71737923     0.10000000 1 1 1
     0.38200999     0.73126041     0.10000000 1 1 1
     0.39533592     0.74514159     0.10000000 1 1 1
     0.40866185     0.75902277     0.10000000 1 1 1
     0.42198778     0.77290394     0.10000000 1 1 1
     0.43531371     0.78678512     0.10000000 1 1 1
     0.44863964     0.80066630     0.10000000 1 1 1
     0.46196557     0.81454747     0.10000000 1 1 1
     0.47529150     0.82842865     0.10000000 1 1 1
     0.48861743     0.84230983     0.10000000 1 1 1
     0.50194336     0.85619100     0.10000000 1 1 1
     0.51526929     0.87007218     0.10000000 1 1 1
     0.52859522     0.88395336     0.10000000 1 1 1
     0.54192115     0.89783454     0.10000000 1 1 1
     0.55524708     0.91171571     0.10000000 1 1 1
     0.56857301     0.92559689     0.10000000 1 1 1
     0.58189895     0.93947807     0.10000000 1 1 1
     0.59522488     0.95335924     0.10000000 1 1 1
     0.60855081     0.96724042     0.10000000 1 1 1
     0.62187674     0.98112160     0.10000000 1 1 1
     0.63520267     0.99500278     0.10000000 1 1 1
     0.00943920     0.30149917     0.10000000 1 1 1
     0.02276513     0.31538034     0.10000000 1 1 1
     0.03609106     0.32926152     0.10000000 1 1 1
     0.04941699     0.34314270     0.10000000 1 1 1
     0.06274292     0.35702388     0.10000000 1 1 1
     0.07606885     0.37090505     0.10000000 1 1 1
     0.08939478     0.38478623     0.10000000 1 1 1
     0.10272071     0.39866741     0.10000000 1 1 1
     0.11604664     0.41254858     0.10000000 1 1 1
     0.12937257     0.42642976     0.10000000 1 1 1
     0.14269850     0.44031094     0.10000000 1 1 1
     0.15602443     0.45419212     0.10000000 1 1 1
     0.16935036     0.46807329     0.10000000 1 1 1
     0.18267629     0.48195447     0.10000000 1 1 1
     0.19600222     0.49583565     0.10000000 1 1 1
     0.20932815     0.50971682     0.10000000 1 1 1
     0.22265408     0.52359800     0.10000000 1 1 1
     0.23598001     0.53747918     0.10000000 1 1 1
     0.24930594     0.55136036     0.10000000 1 1 1
     0.26263187     0.56524153     0.10000000 1 1 1
     0.27595780     0.57912271     0.10000000 1 1 1
     0.28928373     0.59300389     0.10000000 1 1 1
     0.30260966     0.60688506     0.10000000 1 1 1
     0.31593559     0.62076624     0.10000000 1 1 1
     0.32926152     0.63464742     0.10000000 1 1 1
     0.34258745     0.64852860     0.10000000 1 1 1
     0.35591338     0.66240977     0.10000000 1 1 1
     0.36923931     0.67629095     0.10000000 1 1 1
     0.38256524     0.69017213     0.10000000 1 1 1
     0.39589117     0.70405330     0.10000000 1 1 1
     0.40921710     0.71793448     0.10000000 1 1 1
     0.42254303     0.73181566     0.10000000 1 1 1
     0.43586896     0.74569684     0.10000000 1 1 1
     0.44919489     0.75957801     0.10000000 1 1 1
     0.46252082     0.77345919     0.10000000 1 1 1
     0.47584675     0.78734037     0.10000000 1 1 1
     0.48917268     0.80122154     0.10000000 1 1 1
     0.50249861     0.81510272     0.10000000 1 1 1
     0.51582454     0.82898390     0.10000000 1 1 1
     0.52915047     0.84286507     0.10000000 1 1 1
     0.54247640     0.85674625     0.10000000 1 1 1
     0.55580233     0.87062743     0.10000000 1 1 1
     0.56912826     0.88450861     0.10000000 1 1 1
     0.58245419     0.89838978     0.10000000 1 1 1
     0.59578012     0.91227096     0.10000000 1 1 1
     0.60910605     0.92615214     0.10000000 1 1 1
     0.62243198     0.94003331     0.10000000 1 1 1
     0.63575791     0.95391449     0.10000000 1 1 1
     0.64908384     0.96779567     0.10000000 1 1 1
     0.66240977     0.98167685     0.10000000 1 1 1
     0.67573570     0.99555802     0.10000000 1 1 1
     0.00999445     0.26041088     0.10000000 1 1 1
     0.02332038     0.27429206     0.10000000 1 1 1
     0.03664631     0.28817324     0.10000000 1 1 1
     0.04997224     0.30205441     0.10000000 1 1 1
     0.06329817     0.31593559     0.10000000 1 1 1
     0.07662410     0.32981677     0.10000000 1 1 1
     0.08995003     0.34369795     0.10000000 1 1 1
     0.10327596     0.35757912     0.10000000 1 1 1
     0.11660189     0.37146030     0.10000000 1 1 1
     0.12992782     0.38534148     0.10000000 1 1 1
     0.14325375     0.39922265     0.10000000 1 1 1
     0.15657968     0.41310383     0.10000000 1 1 1
     0.16990561     0.42698501     0.10000000 1 1 1
     0.18323154     0.44086619     0.10000000 1 1 1
     0.19655747     0.45474736     0.10000000 1 1 1
     0.20988340     0.46862854     0.10000000 1 1 1
     0.22320933     0.48250972     0.10000000 1 1 1
     0.23653526     0.49639089     0.10000000 1 1 1
     0.24986119     0.51027207     0.10000000 1 1 1
     0.26318712     0.52415325     0.10000000 1 1 1
     0.27651305     0.53803443     0.10000000 1 1 1
     0.28983898     0.55191560     0.10000000 1 1 1
     0.30316491     0.56579678     0.10000000 1 1 1
     0.31649084     0.57967796     0.10000000 1 1 1
     0.32981677     0.59355913     0.10000000 1 1 1
     0.34314270     0.60744031     0.10000000 1 1 1
     0.35646863     0.62132149     0.10000000 1 1 1
     0.36979456     0.63520267     0.10000000 1 1 1
     0.38312049     0.64908384     0.10000000 1 1 1
     0.39644642     0.66296502     0.10000000 1 1 1
     0.40977235     0.67684620     0.10000000 1 1 1
     0.42309828     0.69072737     0.10000000 1 1 1
     0.43642421     0.70460855     0.10000000 1 1 1
     0.44975014     0.71848973     0.10000000 1 1 1
     0.46307607     0.73237091     0.10000000 1 1 1
     0.47640200     0.74625208     0.10000000 1 1 1
     0.48972793     0.76013326     0.10000000 1 1 1
     0.50305386     0.77401444     0.10000000 1 1 1
     0.51637979     0.78789561     0.10000000 1 1 1
     0.52970572     0.80177679     0.10000000 1 1 1
     0.54303165     0.81565797     0.10000000 1 1 1
     0.55635758     0.82953914     0.10000000 1 1 1
     0.56968351     0.84342032     0.10000000 1 1 1
     0.58300944     0.85730150     0.10000000 1 1 1
     0.59633537     0.87118268     0.10000000 1 1 1
     0.60966130     0.88506385     0.10000000 1 1 1
     0.62298723     0.89894503     0.10000000 1 1 1
     0.63631316     0.91282621     0.10000000 1 1 1
     0.64963909     0.92670738     0.10000000 1 1 1
     0.66296502     0.94058856     0.10000000 1 1 1
     0.67629095     0.95446974     0.10000000 1 1 1
     0.68961688     0.96835092     0.10000000 1 1 1
     0.70294281     0.98223209     0.10000000 1 1 1
     0.71626874     0.99611327     0.10000000 1 1 1
     0.01054969     0.21932260     0.10000000 1 1 1
     0.02387562     0.23320378     0.10000000 1 1 1
     0.03720155     0.24708495     0.10000000 1 1 1
     0.05052748     0.26096613     0.10000000 1 1 1
     0.06385341     0.27484731     0.10000000 1 1 1
     0.07717934     0.28872848     0.10000000 1 1 1
     0.09050527     0.30260966     0.10000000 1 1 1
     0.10383120     0.31649084     0.10000000 1 1 1
     0.11715713     0.33037202     0.10000000 1 1 1
     0.13048306     0.34425319     0.10000000 1 1 1
     0.14380900     0.35813437     0.10000000 1 1 1
     0.15713493     0.37201555     0.10000000 1 1 1
     0.17046086     0.38589672     0.10000000 1 1 1
     0.18378679     0.39977790     0.10000000 1 1 1
     0.19711272     0.41365908     0.10000000 1 1 1
     0.21043865     0.42754026     0.10000000 1 1 1
     0.22376458     0.44142143     0.10000000 1 1 1
     0.23709051     0.45530261     0.10000000 1 1 1
     0.25041644     0.46918379     0.10000000 1 1 1
     0.26374237     0.48306496     0.10000000 1 1 1
     0.27706830     0.49694614     0.10000000 1 1 1
     0.29039423     0.51082732     0.10000000 1 1 1
     0.30372016     0.52470850     0.10000000 1 1 1
     0.31704609     0.53858967     0.10000000 1 1 1
     0.33037202     0.55247085     0.10000000 1 1 1
     0.34369795     0.56635203     0.10000000 1 1 1
     0.35702388     0.58023320     0.10000000 1 1 1
     0.37034981     0.59411438     0.10000000 1 1 1
     0.38367574     0.60799556     0.10000000 1 1 1
     0.39700167     0.62187674     0.10000000 1 1 1
     0.41032760     0.63575791     0.10000000 1 1 1
     0.42365353     0.64963909     0.10000000 1 1 1
     0.43697946     0.66352027     0.10000000 1 1 1
     0.45030539     0.67740144     0.10000000 1 1 1
     0.46363132     0.69128262     0.10000000 1 1 1
     0.47695725     0.70516380     0.10000000 1 1 1
     0.49028318     0.71904498     0.10000000 1 1 1
     0.50360911     0.73292615     0.10000000 1 1 1
     0.51693504     0.74680733     0.10000000 1 1 1
     0.53026097     0.76068851     0.10000000 1 1 1
     0.54358690     0.77456968     0.10000000 1 1 1
     0.55691283     0.78845086     0.10000000 1 1 1
     0.57023876     0.80233204     0.10000000 1 1 1
     0.58356469     0.81621321     0.10000000 1 1 1
     0.59689062     0.83009439     0.10000000 1 1 1
     0.61021655     0.84397557     0.10000000 1 1 1
     0.62354248     0.85785675     0.10000000 1 1 1
     0.63686841     0.87173792     0.10000000 1 1 1
     0.65019434     0.88561910     0.10000000 1 1 1
     0.66352027     0.89950028     0.10000000 1 1 1
     0.67684620     0.91338145     0.10000000 1 1 1
     0.69017213     0.92726263     0.10000000 1 1 1
     0.70349806     0.94114381     0.10000000 1 1 1
     0.71682399     0.95502499     0.10000000 1 1 1
     0.73014992     0.96890616     0.10000000 1 1 1
     0.74347585     0.98278734     0.10000000 1 1 1
     0.75680178     0.99666852     0.10000000 1 1 1