ATOMIC_SPECIES
C 6.000 /mnt/C_ONCV_PBE-1.0.upf

NUMERICAL_ORBITAL
/mnt/C_gga_8au_100Ry_2s2p1d.orb

LATTICE_CONSTANT
1.889716

LATTICE_VECTORS
       39.35200000       21.29989481       0.00000000
       1.22975000       44.72977909       0.00000000
       0.00000000       0.00000000       30.00000000

ATOMIC_POSITIONS
Direct

C
0.0
1324
     0.00302115     0.90332326     0.10000000 1 1 1
     0.03323263     0.93655589     0.10000000 1 1 1
     0.06344411     0.96978852     0.10000000 1 1 1
     0.00604230     0.80664653     0.10000000 1 1 1
     0.03625378     0.83987915     0.10000000 1 1 1
     0.06646526     0.87311178     0.10000000 1 1 1
     0.09667674     0.90634441     0.10000000 1 1 1
     0.12688822     0.93957704     0.10000000 1 1 1
     0.15709970     0.97280967     0.10000000 1 1 1
     0.00906344     0.70996979     0.10000000 1 1 1
     0.03927492     0.74320242     0.10000000 1 1 1
     0.06948640     0.77643505     0.10000000 1 1 1
     0.09969789     0.80966767     0.10000000 1 1 1
     0.12990937     0.84290030     0.10000000 1 1 1
     0.16012085     0.87613293     0.10000000 1 1 1
     0.19033233     0.90936556     0.10000000 1 1 1
     0.22054381     0.94259819     0.10000000 1 1 1
     0.25075529     0.97583082     0.10000000 1 1 1
     0.01208459     0.61329305     0.10000000 1 1 1
     0.04229607     0.64652568     0.10000000 1 1 1
     0.07250755     0.67975831     0.10000000 1 1 1
     0.10271903     0.71299094     0.10000000 1 1 1
     0.13293051     0.74622356     0.10000000 1 1 1
     0.16314199     0.77945619     0.10000000 1 1 1
     0.19335347     0.81268882     0.10000000 1 1 1
     0.22356495     0.84592145     0.10000000 1 1 1
     0.25377644     0.87915408     0.10000000 1 1 1
     0.28398792     0.91238671     0.10000000 1 1 1
     0.31419940     0.94561934     0.10000000 1 1 1
     0.34441088     0.97885196     0.10000000 1 1 1
     0.01510574     0.51661631     0.10000000 1 1 1
     0.04531722     0.54984894     0.10000000 1 1 1
     0.07552870     0.58308157     0.10000000 1 1 1
     0.10574018     0.61631420     0.10000000 1 1 1
     0.13595166     0.64954683     0.10000000 1 1 1
     0.16616314     0.68277946     0.10000000 1 1 1
     0.19637462     0.71601208     0.10000000 1 1 1
     0.22658610     0.74924471     0.10000000 1 1 1
     0.25679758     0.78247734     0.10000000 1 1 1
     0.28700906     0.81570997     0.10000000 1 1 1
     0.31722054     0.84894260     0.10000000 1 1 1
     0.34743202     0.88217523     0.10000000 1 1 1
     0.37764350     0.91540785     0.10000000 1 1 1
     0.40785498     0.94864048     0.10000000 1 1 1
     0.43806647     0.98187311     0.10000000 1 1 1
     0.01812689     0.41993958     0.10000000 1 1 1
     0.04833837     0.45317221     0.10000000 1 1 1
     0.07854985     0.48640483     0.10000000 1 1 1
     0.10876133     0.51963746     0.10000000 1 1 1
     0.13897281     0.55287009     0.10000000 1 1 1
     0.16918429     0.58610272     0.10000000 1 1 1
     0.19939577     0.61933535     0.10000000 1 1 1
     0.22960725     0.65256798     0.10000000 1 1 1
     0.25981873     0.68580060     0.10000000 1 1 1
     0.29003021     0.71903323     0.10000000 1 1 1
     0.32024169     0.75226586     0.10000000 1 1 1
     0.35045317     0.78549849     0.10000000 1 1 1
     0.38066465     0.81873112     0.10000000 1 1 1
     0.41087613     0.85196375     0.10000000 1 1 1
     0.44108761     0.88519637     0.10000000 1 1 1
     0.47129909     0.91842900     0.10000000 1 1 1
     0.50151057     0.95166163     0.10000000 1 1 1
     0.53172205     0.98489426     0.10000000 1 1 1
     0.02114804     0.32326284     0.10000000 1 1 1
     0.05135952     0.35649547     0.10000000 1 1 1
     0.08157100     0.38972810     0.10000000 1 1 1
     0.11178248     0.42296073     0.10000000 1 1 1
     0.14199396     0.45619335     0.10000000 1 1 1
     0.17220544     0.48942598     0.10000000 1 1 1
     0.20241692     0.52265861     0.10000000 1 1 1
     0.23262840     0.55589124     0.10000000 1 1 1
     0.26283988     0.58912387     0.10000000 1 1 1
     0.29305136     0.62235650     0.10000000 1 1 1
     0.32326284     0.65558912     0.10000000 1 1 1
     0.35347432     0.68882175     0.10000000 1 1 1
     0.38368580     0.72205438     0.10000000 1 1 1
     0.41389728     0.75528701     0.10000000 1 1 1
     0.44410876     0.78851964     0.10000000 1 1 1
     0.47432024     0.82175227     0.10000000 1 1 1
     0.50453172     0.85498489     0.10000000 1 1 1
     0.53474320     0.88821752     0.10000000 1 1 1
     0.56495468     0.92145015     0.10000000 1 1 1
     0.59516616     0.95468278     0.10000000 1 1 1
     0.62537764     0.98791541     0.10000000 1 1 1
     0.02416918     0.22658610     0.10000000 1 1 1
     0.05438066     0.25981873     0.10000000 1 1 1
     0.08459215     0.29305136     0.10000000 1 1 1
     0.11480363     0.32628399     0.10000000 1 1 1
     0.14501511     0.35951662     0.10000000 1 1 1
     0.17522659     0.39274924     0.10000000 1 1 1
     0.20543807     0.42598187     0.10000000 1 1 1
     0.23564955     0.45921450     0.10000000 1 1 1
     0.26586103     0.49244713     0.10000000 1 1 1
     0.29607251     0.52567976     0.10000000 1 1 1
     0.32628399     0.55891239     0.10000000 1 1 1
     0.35649547     0.59214502     0.10000000 1 1 1
     0.38670695     0.62537764     0.10000000 1 1 1
     0.41691843     0.65861027     0.10000000 1 1 1
     0.44712991     0.69184290     0.10000000 1 1 1
     0.47734139     0.72507553     0.10000000 1 1 1
     0.50755287     0.75830816     0.10000000 1 1 1
     0.53776435     0.79154079     0.10000000 1 1 1
     0.56797583     0.82477341     0.10000000 1 1 1
     0.59818731     0.85800604     0.10000000 1 1 1
     0.62839879     0.89123867     0.10000000 1 1 1
     0.65861027     0.92447130     0.10000000 1 1 1
     0.68882175     0.95770393     0.10000000 1 1 1
     0.71903323     0.99093656     0.10000000 1 1 1
     0.02719033     0.12990937     0.10000000 1 1 1
     0.05740181     0.16314199     0.10000000 1 1 1
     0.08761329     0.19637462     0.10000000 1 1 1
     0.11782477     0.22960725     0.10000000 1 1 1
     0.14803625     0.26283988     0.10000000 1 1 1
     0.17824773     0.29607251     0.10000000 1 1 1
     0.20845921     0.32930514     0.10000000 1 1 1
     0.23867069     0.36253776     0.10000000 1 1 1
     0.26888218     0.39577039     0.10000000 1 1 1
     0.29909366     0.42900302     0.10000000 1 1 1
     0.32930514     0.46223565     0.10000000 1 1 1
     0.35951662     0.49546828     0.10000000 1 1 1
     0.38972810     0.52870091     0.10000000 1 1 1
     0.41993958     0.56193353     0.10000000 1 1 1
     0.45015106     0.59516616     0.10000000 1 1 1
     0.48036254     0.62839879     0.10000000 1 1 1
     0.51057402     0.66163142     0.10000000 1 1 1
     0.54078550     0.69486405     0.10000000 1 1 1
     0.57099698     0.72809668     0.10000000 1 1 1
     0.60120846     0.76132931     0.10000000 1 1 1
     0.63141994     0.79456193     0.10000000 1 1 1
     0.66163142     0.82779456     0.10000000 1 1 1
     0.69184290     0.86102719     0.10000000 1 1 1
     0.72205438     0.89425982     0.10000000 1 1 1
     0.75226586     0.92749245     0.10000000 1 1 1
     0.78247734     0.96072508     0.10000000 1 1 1
     0.81268882     0.99395770     0.10000000 1 1 1
     0.00000000     0.00000000     0.10000000 1 1 1
     0.03021148     0.03323263     0.10000000 1 1 1
     0.06042296     0.06646526     0.10000000 1 1 1
     0.09063444     0.09969789     0.10000000 1 1 1
     0.12084592     0.13293051     0.10000000 1 1 1
     0.15105740     0.16616314     0.10000000 1 1 1
     0.18126888     0.19939577     0.10000000 1 1 1
     0.21148036     0.23262840     0.10000000 1 1 1
     0.24169184     0.26586103     0.10000000 1 1 1
     0.27190332     0.29909366     0.10000000 1 1 1
     0.30211480     0.33232628     0.10000000 1 1 1
     0.33232628     0.36555891     0.10000000 1 1 1
     0.36253776     0.39879154     0.10000000 1 1 1
     0.39274924     0.43202417     0.10000000 1 1 1
     0.42296073     0.46525680     0.10000000 1 1 1
     0.45317221     0.49848943     0.10000000 1 1 1
     0.48338369     0.53172205     0.10000000 1 1 1
     0.51359517     0.56495468     0.10000000 1 1 1
     0.54380665     0.59818731     0.10000000 1 1 1
     0.57401813     0.63141994     0.10000000 1 1 1
     0.60422961     0.66465257     0.10000000 1 1 1
     0.63444109     0.69788520     0.10000000 1 1 1
     0.66465257     0.73111782     0.10000000 1 1 1
     0.69486405     0.76435045     0.10000000 1 1 1
     0.72507553     0.79758308     0.10000000 1 1 1
     0.75528701     0.83081571     0.10000000 1 1 1
     0.78549849     0.86404834     0.10000000 1 1 1
     0.81570997     0.89728097     0.10000000 1 1 1
     0.84592145     0.93051360     0.10000000 1 1 1
     0.87613293     0.96374622     0.10000000 1 1 1
     0.90634441     0.99697885     0.10000000 1 1 1
     0.09365559     0.00302115     0.10000000 1 1 1
     0.12386707     0.03625378     0.10000000 1 1 1
     0.15407855     0.06948640     0.10000000 1 1 1
     0.18429003     0.10271903     0.10000000 1 1 1
     0.21450151     0.13595166     0.10000000 1 1 1
     0.24471299     0.16918429     0.10000000 1 1 1
     0.27492447     0.20241692     0.10000000 1 1 1
     0.30513595     0.23564955     0.10000000 1 1 1
     0.33534743     0.26888218     0.10000000 1 1 1
     0.36555891     0.30211480     0.10000000 1 1 1
     0.39577039     0.33534743     0.10000000 1 1 1
     0.42598187     0.36858006     0.10000000 1 1 1
     0.45619335     0.40181269     0.10000000 1 1 1
     0.48640483     0.43504532     0.10000000 1 1 1
     0.51661631     0.46827795     0.10000000 1 1 1
     0.54682779     0.50151057     0.10000000 1 1 1
     0.57703927     0.53474320     0.10000000 1 1 1
     0.60725076     0.56797583     0.10000000 1 1 1
     0.63746224     0.60120846     0.10000000 1 1 1
     0.66767372     0.63444109     0.10000000 1 1 1
     0.69788520     0.66767372     0.10000000 1 1 1
     0.72809668     0.70090634     0.10000000 1 1 1
     0.75830816     0.73413897     0.10000000 1 1 1
     0.78851964     0.76737160     0.10000000 1 1 1
     0.81873112     0.80060423     0.10000000 1 1 1
     0.84894260     0.83383686     0.10000000 1 1 1
     0.87915408     0.86706949     0.10000000 1 1 1
     0.90936556     0.90030211     0.10000000 1 1 1
     0.93957704     0.93353474     0.10000000 1 1 1
     0.96978852     0.96676737     0.10000000 1 1 1
     0.18731118     0.00604230     0.10000000 1 1 1
     0.21752266     0.03927492     0.10000000 1 1 1
     0.24773414     0.07250755     0.10000000 1 1 1
     0.27794562     0.10574018     0.10000000 1 1 1
     0.30815710     0.13897281     0.10000000 1 1 1
     0.33836858     0.17220544     0.10000000 1 1 1
     0.36858006     0.20543807     0.10000000 1 1 1
     0.39879154     0.23867069     0.10000000 1 1 1
     0.42900302     0.27190332     0.10000000 1 1 1
     0.45921450     0.30513595     0.10000000 1 1 1
     0.48942598     0.33836858     0.10000000 1 1 1
     0.51963746     0.37160121     0.10000000 1 1 1
     0.54984894     0.40483384     0.10000000 1 1 1
     0.58006042     0.43806647     0.10000000 1 1 1
     0.61027190     0.47129909     0.10000000 1 1 1
     0.64048338     0.50453172     0.10000000 1 1 1
     0.67069486     0.53776435     0.10000000 1 1 1
     0.70090634     0.57099698     0.10000000 1 1 1
     0.73111782     0.60422961     0.10000000 1 1 1
     0.76132931     0.63746224     0.10000000 1 1 1
     0.79154079     0.67069486     0.10000000 1 1 1
     0.82175227     0.70392749     0.10000000 1 1 1
     0.85196375     0.73716012     0.10000000 1 1 1
     0.88217523     0.77039275     0.10000000 1 1 1
     0.91238671     0.80362538     0.10000000 1 1 1
     0.94259819     0.83685801     0.10000000 1 1 1
     0.97280967     0.87009063     0.10000000 1 1 1
     0.28096677     0.00906344     0.10000000 1 1 1
     0.31117825     0.04229607     0.10000000 1 1 1
     0.34138973     0.07552870     0.10000000 1 1 1
     0.37160121     0.10876133     0.10000000 1 1 1
     0.40181269     0.14199396     0.10000000 1 1 1
     0.43202417     0.17522659     0.10000000 1 1 1
     0.46223565     0.20845921     0.10000000 1 1 1
     0.49244713     0.24169184     0.10000000 1 1 1
     0.52265861     0.27492447     0.10000000 1 1 1
     0.55287009     0.30815710     0.10000000 1 1 1
     0.58308157     0.34138973     0.10000000 1 1 1
     0.61329305     0.37462236     0.10000000 1 1 1
     0.64350453     0.40785498     0.10000000 1 1 1
     0.67371601     0.44108761     0.10000000 1 1 1
     0.70392749     0.47432024     0.10000000 1 1 1
     0.73413897     0.50755287     0.10000000 1 1 1
     0.76435045     0.54078550     0.10000000 1 1 1
     0.79456193     0.57401813     0.10000000 1 1 1
     0.82477341     0.60725076     0.10000000 1 1 1
     0.85498489     0.64048338     0.10000000 1 1 1
     0.88519637     0.67371601     0.10000000 1 1 1
     0.91540785     0.70694864     0.10000000 1 1 1
     0.94561934     0.74018127     0.10000000 1 1 1
     0.97583082     0.77341390     0.10000000 1 1 1
     0.37462236     0.01208459     0.10000000 1 1 1
     0.40483384     0.04531722     0.10000000 1 1 1
     0.43504532     0.07854985     0.10000000 1 1 1
     0.46525680     0.11178248     0.10000000 1 1 1
     0.49546828     0.14501511     0.10000000 1 1 1
     0.52567976     0.17824773     0.10000000 1 1 1
     0.55589124     0.21148036     0.10000000 1 1 1
     0.58610272     0.24471299     0.10000000 1 1 1
     0.61631420     0.27794562     0.10000000 1 1 1
     0.64652568     0.31117825     0.10000000 1 1 1
     0.67673716     0.34441088     0.10000000 1 1 1
     0.70694864     0.37764350     0.10000000 1 1 1
     0.73716012     0.41087613     0.10000000 1 1 1
     0.76737160     0.44410876     0.10000000 1 1 1
     0.79758308     0.47734139     0.10000000 1 1 1
     0.82779456     0.51057402     0.10000000 1 1 1
     0.85800604     0.54380665     0.10000000 1 1 1
     0.88821752     0.57703927     0.10000000 1 1 1
     0.91842900     0.61027190     0.10000000 1 1 1
     0.94864048     0.64350453     0.10000000 1 1 1
     0.97885196     0.67673716     0.10000000 1 1 1
     0.46827795     0.01510574     0.10000000 1 1 1
     0.49848943     0.04833837     0.10000000 1 1 1
     0.52870091     0.08157100     0.10000000 1 1 1
     0.55891239     0.11480363     0.10000000 1 1 1
     0.58912387     0.14803625     0.10000000 1 1 1
     0.61933535     0.18126888     0.10000000 1 1 1
     0.64954683     0.21450151     0.10000000 1 1 1
     0.67975831     0.24773414     0.10000000 1 1 1
     0.70996979     0.28096677     0.10000000 1 1 1
     0.74018127     0.31419940     0.10000000 1 1 1
     0.77039275     0.34743202     0.10000000 1 1 1
     0.80060423     0.38066465     0.10000000 1 1 1
     0.83081571     0.41389728     0.10000000 1 1 1
     0.86102719     0.44712991     0.10000000 1 1 1
     0.89123867     0.48036254     0.10000000 1 1 1
     0.92145015     0.51359517     0.10000000 1 1 1
     0.95166163     0.54682779     0.10000000 1 1 1
     0.98187311     0.58006042     0.10000000 1 1 1
     0.56193353     0.01812689     0.10000000 1 1 1
     0.59214502     0.05135952     0.10000000 1 1 1
     0.62235650     0.08459215     0.10000000 1 1 1
     0.65256798     0.11782477     0.10000000 1 1 1
     0.68277946     0.15105740     0.10000000 1 1 1
     0.71299094     0.18429003     0.10000000 1 1 1
     0.74320242     0.21752266     0.10000000 1 1 1
     0.77341390     0.25075529     0.10000000 1 1 1
     0.80362538     0.28398792     0.10000000 1 1 1
     0.83383686     0.31722054     0.10000000 1 1 1
     0.86404834     0.35045317     0.10000000 1 1 1
     0.89425982     0.38368580     0.10000000 1 1 1
     0.92447130     0.41691843     0.10000000 1 1 1
     0.95468278     0.45015106     0.10000000 1 1 1
     0.98489426     0.48338369     0.10000000 1 1 1
     0.65558912     0.02114804     0.10000000 1 1 1
     0.68580060     0.05438066     0.10000000 1 1 1
     0.71601208     0.08761329     0.10000000 1 1 1
     0.74622356     0.12084592     0.10000000 1 1 1
     0.77643505     0.15407855     0.10000000 1 1 1
     0.80664653     0.18731118     0.10000000 1 1 1
     0.83685801     0.22054381     0.10000000 1 1 1
     0.86706949     0.25377644     0.10000000 1 1 1
     0.89728097     0.28700906     0.10000000 1 1 1
     0.92749245     0.32024169     0.10000000 1 1 1
     0.95770393     0.35347432     0.10000000 1 1 1
     0.98791541     0.38670695     0.10000000 1 1 1
     0.74924471     0.02416918     0.10000000 1 1 1
     0.77945619     0.05740181     0.10000000 1 1 1
     0.80966767     0.09063444     0.10000000 1 1 1
     0.83987915     0.12386707     0.10000000 1 1 1
     0.87009063     0.15709970     0.10000000 1 1 1
     0.90030211     0.19033233     0.10000000 1 1 1
     0.93051360     0.22356495     0.10000000 1 1 1
     0.96072508     0.25679758     0.10000000 1 1 1
     0.99093656     0.29003021     0.10000000 1 1 1
     0.84290030     0.02719033     0.10000000 1 1 1
     0.87311178     0.06042296     0.10000000 1 1 1
     0.90332326     0.09365559     0.10000000 1 1 1
     0.93353474     0.12688822     0.10000000 1 1 1
     0.96374622     0.16012085     0.10000000 1 1 1
     0.99395770     0.19335347     0.10000000 1 1 1
     0.93655589     0.03021148     0.10000000 1 1 1
     0.96676737     0.06344411     0.10000000 1 1 1
     0.99697885     0.09667674     0.10000000 1 1 1
     0.06545821     0.90533736     0.10000000 1 1 1
     0.09566969     0.93856999     0.10000000 1 1 1
     0.12588117     0.97180262     0.10000000 1 1 1
     0.06847936     0.80866062     0.10000000 1 1 1
     0.09869084     0.84189325     0.10000000 1 1 1
     0.12890232     0.87512588     0.10000000 1 1 1
     0.15911380     0.90835851     0.10000000 1 1 1
     0.18932528     0.94159114     0.10000000 1 1 1
     0.21953676     0.97482376     0.10000000 1 1 1
     0.07150050     0.71198389     0.10000000 1 1 1
     0.10171198     0.74521651     0.10000000 1 1 1
     0.13192346     0.77844914     0.10000000 1 1 1
     0.16213494     0.81168177     0.10000000 1 1 1
     0.19234643     0.84491440     0.10000000 1 1 1
     0.22255791     0.87814703     0.10000000 1 1 1
     0.25276939     0.91137966     0.10000000 1 1 1
     0.28298087     0.94461228     0.10000000 1 1 1
     0.31319235     0.97784491     0.10000000 1 1 1
     0.07452165     0.61530715     0.10000000 1 1 1
     0.10473313     0.64853978     0.10000000 1 1 1
     0.13494461     0.68177240     0.10000000 1 1 1
     0.16515609     0.71500503     0.10000000 1 1 1
     0.19536757     0.74823766     0.10000000 1 1 1
     0.22557905     0.78147029     0.10000000 1 1 1
     0.25579053     0.81470292     0.10000000 1 1 1
     0.28600201     0.84793555     0.10000000 1 1 1
     0.31621349     0.88116818     0.10000000 1 1 1
     0.34642497     0.91440080     0.10000000 1 1 1
     0.37663646     0.94763343     0.10000000 1 1 1
     0.40684794     0.98086606     0.10000000 1 1 1
     0.07754280     0.51863041     0.10000000 1 1 1
     0.10775428     0.55186304     0.10000000 1 1 1
     0.13796576     0.58509567     0.10000000 1 1 1
     0.16817724     0.61832830     0.10000000 1 1 1
     0.19838872     0.65156092     0.10000000 1 1 1
     0.22860020     0.68479355     0.10000000 1 1 1
     0.25881168     0.71802618     0.10000000 1 1 1
     0.28902316     0.75125881     0.10000000 1 1 1
     0.31923464     0.78449144     0.10000000 1 1 1
     0.34944612     0.81772407     0.10000000 1 1 1
     0.37965760     0.85095669     0.10000000 1 1 1
     0.40986908     0.88418932     0.10000000 1 1 1
     0.44008056     0.91742195     0.10000000 1 1 1
     0.47029204     0.95065458     0.10000000 1 1 1
     0.50050352     0.98388721     0.10000000 1 1 1
     0.08056395     0.42195367     0.10000000 1 1 1
     0.11077543     0.45518630     0.10000000 1 1 1
     0.14098691     0.48841893     0.10000000 1 1 1
     0.17119839     0.52165156     0.10000000 1 1 1
     0.20140987     0.55488419     0.10000000 1 1 1
     0.23162135     0.58811682     0.10000000 1 1 1
     0.26183283     0.62134944     0.10000000 1 1 1
     0.29204431     0.65458207     0.10000000 1 1 1
     0.32225579     0.68781470     0.10000000 1 1 1
     0.35246727     0.72104733     0.10000000 1 1 1
     0.38267875     0.75427996     0.10000000 1 1 1
     0.41289023     0.78751259     0.10000000 1 1 1
     0.44310171     0.82074521     0.10000000 1 1 1
     0.47331319     0.85397784     0.10000000 1 1 1
     0.50352467     0.88721047     0.10000000 1 1 1
     0.53373615     0.92044310     0.10000000 1 1 1
     0.56394763     0.95367573     0.10000000 1 1 1
     0.59415911     0.98690836     0.10000000 1 1 1
     0.08358510     0.32527694     0.10000000 1 1 1
     0.11379658     0.35850957     0.10000000 1 1 1
     0.14400806     0.39174219     0.10000000 1 1 1
     0.17421954     0.42497482     0.10000000 1 1 1
     0.20443102     0.45820745     0.10000000 1 1 1
     0.23464250     0.49144008     0.10000000 1 1 1
     0.26485398     0.52467271     0.10000000 1 1 1
     0.29506546     0.55790534     0.10000000 1 1 1
     0.32527694     0.59113796     0.10000000 1 1 1
     0.35548842     0.62437059     0.10000000 1 1 1
     0.38569990     0.65760322     0.10000000 1 1 1
     0.41591138     0.69083585     0.10000000 1 1 1
     0.44612286     0.72406848     0.10000000 1 1 1
     0.47633434     0.75730111     0.10000000 1 1 1
     0.50654582     0.79053373     0.10000000 1 1 1
     0.53675730     0.82376636     0.10000000 1 1 1
     0.56696878     0.85699899     0.10000000 1 1 1
     0.59718026     0.89023162     0.10000000 1 1 1
     0.62739174     0.92346425     0.10000000 1 1 1
     0.65760322     0.95669688     0.10000000 1 1 1
     0.68781470     0.98992950     0.10000000 1 1 1
     0.08660624     0.22860020     0.10000000 1 1 1
     0.11681772     0.26183283     0.10000000 1 1 1
     0.14702920     0.29506546     0.10000000 1 1 1
     0.17724068     0.32829808     0.10000000 1 1 1
     0.20745217     0.36153071     0.10000000 1 1 1
     0.23766365     0.39476334     0.10000000 1 1 1
     0.26787513     0.42799597     0.10000000 1 1 1
     0.29808661     0.46122860     0.10000000 1 1 1
     0.32829809     0.49446123     0.10000000 1 1 1
     0.35850957     0.52769386     0.10000000 1 1 1
     0.38872105     0.56092648     0.10000000 1 1 1
     0.41893253     0.59415911     0.10000000 1 1 1
     0.44914401     0.62739174     0.10000000 1 1 1
     0.47935549     0.66062437     0.10000000 1 1 1
     0.50956697     0.69385700     0.10000000 1 1 1
     0.53977845     0.72708963     0.10000000 1 1 1
     0.56998993     0.76032225     0.10000000 1 1 1
     0.60020141     0.79355488     0.10000000 1 1 1
     0.63041289     0.82678751     0.10000000 1 1 1
     0.66062437     0.86002014     0.10000000 1 1 1
     0.69083585     0.89325277     0.10000000 1 1 1
     0.72104733     0.92648540     0.10000000 1 1 1
     0.75125881     0.95971802     0.10000000 1 1 1
     0.78147029     0.99295065     0.10000000 1 1 1
     0.08962739     0.13192346     0.10000000 1 1 1
     0.11983887     0.16515609     0.10000000 1 1 1
     0.15005035     0.19838872     0.10000000 1 1 1
     0.18026183     0.23162135     0.10000000 1 1 1
     0.21047331     0.26485398     0.10000000 1 1 1
     0.24068479     0.29808660     0.10000000 1 1 1
     0.27089627     0.33131923     0.10000000 1 1 1
     0.30110775     0.36455186     0.10000000 1 1 1
     0.33131923     0.39778449     0.10000000 1 1 1
     0.36153072     0.43101712     0.10000000 1 1 1
     0.39174220     0.46424975     0.10000000 1 1 1
     0.42195368     0.49748237     0.10000000 1 1 1
     0.45216516     0.53071500     0.10000000 1 1 1
     0.48237664     0.56394763     0.10000000 1 1 1
     0.51258812     0.59718026     0.10000000 1 1 1
     0.54279960     0.63041289     0.10000000 1 1 1
     0.57301108     0.66364552     0.10000000 1 1 1
     0.60322256     0.69687815     0.10000000 1 1 1
     0.63343404     0.73011077     0.10000000 1 1 1
     0.66364552     0.76334340     0.10000000 1 1 1
     0.69385700     0.79657603     0.10000000 1 1 1
     0.72406848     0.82980866     0.10000000 1 1 1
     0.75427996     0.86304129     0.10000000 1 1 1
     0.78449144     0.89627392     0.10000000 1 1 1
     0.81470292     0.92950654     0.10000000 1 1 1
     0.84491440     0.96273917     0.10000000 1 1 1
     0.87512588     0.99597180     0.10000000 1 1 1
     0.06243706     0.00201410     0.10000000 1 1 1
     0.09264854     0.03524673     0.10000000 1 1 1
     0.12286002     0.06847935     0.10000000 1 1 1
     0.15307150     0.10171198     0.10000000 1 1 1
     0.18328298     0.13494461     0.10000000 1 1 1
     0.21349446     0.16817724     0.10000000 1 1 1
     0.24370594     0.20140987     0.10000000 1 1 1
     0.27391742     0.23464250     0.10000000 1 1 1
     0.30412890     0.26787512     0.10000000 1 1 1
     0.33434038     0.30110775     0.10000000 1 1 1
     0.36455186     0.33434038     0.10000000 1 1 1
     0.39476334     0.36757301     0.10000000 1 1 1
     0.42497482     0.40080564     0.10000000 1 1 1
     0.45518630     0.43403827     0.10000000 1 1 1
     0.48539778     0.46727089     0.10000000 1 1 1
     0.51560926     0.50050352     0.10000000 1 1 1
     0.54582075     0.53373615     0.10000000 1 1 1
     0.57603223     0.56696878     0.10000000 1 1 1
     0.60624371     0.60020141     0.10000000 1 1 1
     0.63645519     0.63343404     0.10000000 1 1 1
     0.66666667     0.66666666     0.10000000 1 1 1
     0.69687815     0.69989929     0.10000000 1 1 1
     0.72708963     0.73313192     0.10000000 1 1 1
     0.75730111     0.76636455     0.10000000 1 1 1
     0.78751259     0.79959718     0.10000000 1 1 1
     0.81772407     0.83282981     0.10000000 1 1 1
     0.84793555     0.86606244     0.10000000 1 1 1
     0.87814703     0.89929506     0.10000000 1 1 1
     0.90835851     0.93252769     0.10000000 1 1 1
     0.93856999     0.96576032     0.10000000 1 1 1
     0.96878147     0.99899295     0.10000000 1 1 1
     0.15609265     0.00503524     0.10000000 1 1 1
     0.18630413     0.03826787     0.10000000 1 1 1
     0.21651561     0.07150050     0.10000000 1 1 1
     0.24672709     0.10473313     0.10000000 1 1 1
     0.27693857     0.13796576     0.10000000 1 1 1
     0.30715005     0.17119839     0.10000000 1 1 1
     0.33736153     0.20443102     0.10000000 1 1 1
     0.36757301     0.23766364     0.10000000 1 1 1
     0.39778449     0.27089627     0.10000000 1 1 1
     0.42799597     0.30412890     0.10000000 1 1 1
     0.45820745     0.33736153     0.10000000 1 1 1
     0.48841893     0.37059416     0.10000000 1 1 1
     0.51863041     0.40382679     0.10000000 1 1 1
     0.54884189     0.43705941     0.10000000 1 1 1
     0.57905337     0.47029204     0.10000000 1 1 1
     0.60926485     0.50352467     0.10000000 1 1 1
     0.63947633     0.53675730     0.10000000 1 1 1
     0.66968781     0.56998993     0.10000000 1 1 1
     0.69989930     0.60322256     0.10000000 1 1 1
     0.73011078     0.63645518     0.10000000 1 1 1
     0.76032226     0.66968781     0.10000000 1 1 1
     0.79053374     0.70292044     0.10000000 1 1 1
     0.82074522     0.73615307     0.10000000 1 1 1
     0.85095670     0.76938570     0.10000000 1 1 1
     0.88116818     0.80261833     0.10000000 1 1 1
     0.91137966     0.83585095     0.10000000 1 1 1
     0.94159114     0.86908358     0.10000000 1 1 1
     0.97180262     0.90231621     0.10000000 1 1 1
     1.00201410     0.93554884     0.10000000 1 1 1
     1.03222558     0.96878147     0.10000000 1 1 1
     0.24974824     0.00805639     0.10000000 1 1 1
     0.27995972     0.04128902     0.10000000 1 1 1
     0.31017120     0.07452165     0.10000000 1 1 1
     0.34038268     0.10775428     0.10000000 1 1 1
     0.37059416     0.14098691     0.10000000 1 1 1
     0.40080564     0.17421953     0.10000000 1 1 1
     0.43101712     0.20745216     0.10000000 1 1 1
     0.46122860     0.24068479     0.10000000 1 1 1
     0.49144008     0.27391742     0.10000000 1 1 1
     0.52165156     0.30715005     0.10000000 1 1 1
     0.55186304     0.34038268     0.10000000 1 1 1
     0.58207452     0.37361531     0.10000000 1 1 1
     0.61228600     0.40684793     0.10000000 1 1 1
     0.64249748     0.44008056     0.10000000 1 1 1
     0.67270896     0.47331319     0.10000000 1 1 1
     0.70292044     0.50654582     0.10000000 1 1 1
     0.73313192     0.53977845     0.10000000 1 1 1
     0.76334340     0.57301108     0.10000000 1 1 1
     0.79355488     0.60624370     0.10000000 1 1 1
     0.82376636     0.63947633     0.10000000 1 1 1
     0.85397785     0.67270896     0.10000000 1 1 1
     0.88418933     0.70594159     0.10000000 1 1 1
     0.91440081     0.73917422     0.10000000 1 1 1
     0.94461229     0.77240685     0.10000000 1 1 1
     0.97482377     0.80563947     0.10000000 1 1 1
     1.00503525     0.83887210     0.10000000 1 1 1
     1.03524673     0.87210473     0.10000000 1 1 1
     0.34340383     0.01107754     0.10000000 1 1 1
     0.37361531     0.04431017     0.10000000 1 1 1
     0.40382679     0.07754280     0.10000000 1 1 1
     0.43403827     0.11077543     0.10000000 1 1 1
     0.46424975     0.14400805     0.10000000 1 1 1
     0.49446123     0.17724068     0.10000000 1 1 1
     0.52467271     0.21047331     0.10000000 1 1 1
     0.55488419     0.24370594     0.10000000 1 1 1
     0.58509567     0.27693857     0.10000000 1 1 1
     0.61530715     0.31017120     0.10000000 1 1 1
     0.64551863     0.34340382     0.10000000 1 1 1
     0.67573011     0.37663645     0.10000000 1 1 1
     0.70594159     0.40986908     0.10000000 1 1 1
     0.73615307     0.44310171     0.10000000 1 1 1
     0.76636455     0.47633434     0.10000000 1 1 1
     0.79657603     0.50956697     0.10000000 1 1 1