ATOMIC_SPECIES
C 6.000 ./C_ONCV_PBE-1.0.upf

NUMERICAL_ORBITAL
./C_gga_8au_100Ry_2s2p1d.orb

LATTICE_CONSTANT
1.889716

LATTICE_VECTORS
       72.55525000       40.46980013       0.00000000
       1.22975000       83.06958974       0.00000000
       0.00000000       0.00000000       30.00000000

ATOMIC_POSITIONS
Direct

C
0.0
4564
     0.00087642     0.94829097     0.10000000 1 1 1
     0.01752848     0.96581946     0.10000000 1 1 1
     0.03418054     0.98334794     0.10000000 1 1 1
     0.00175285     0.89658195     0.10000000 1 1 1
     0.01840491     0.91411043     0.10000000 1 1 1
     0.03505697     0.93163891     0.10000000 1 1 1
     0.05170903     0.94916740     0.10000000 1 1 1
     0.06836109     0.96669588     0.10000000 1 1 1
     0.08501315     0.98422436     0.10000000 1 1 1
     0.00262927     0.84487292     0.10000000 1 1 1
     0.01928133     0.86240140     0.10000000 1 1 1
     0.03593339     0.87992989     0.10000000 1 1 1
     0.05258545     0.89745837     0.10000000 1 1 1
     0.06923751     0.91498685     0.10000000 1 1 1
     0.08588957     0.93251534     0.10000000 1 1 1
     0.10254163     0.95004382     0.10000000 1 1 1
     0.11919369     0.96757230     0.10000000 1 1 1
     0.13584575     0.98510079     0.10000000 1 1 1
     0.00350570     0.79316389     0.10000000 1 1 1
     0.02015776     0.81069238     0.10000000 1 1 1
     0.03680982     0.82822086     0.10000000 1 1 1
     0.05346188     0.84574934     0.10000000 1 1 1
     0.07011394     0.86327783     0.10000000 1 1 1
     0.08676599     0.88080631     0.10000000 1 1 1
     0.10341805     0.89833479     0.10000000 1 1 1
     0.12007011     0.91586328     0.10000000 1 1 1
     0.13672217     0.93339176     0.10000000 1 1 1
     0.15337423     0.95092025     0.10000000 1 1 1
     0.17002629     0.96844873     0.10000000 1 1 1
     0.18667835     0.98597721     0.10000000 1 1 1
     0.00438212     0.74145486     0.10000000 1 1 1
     0.02103418     0.75898335     0.10000000 1 1 1
     0.03768624     0.77651183     0.10000000 1 1 1
     0.05433830     0.79404032     0.10000000 1 1 1
     0.07099036     0.81156880     0.10000000 1 1 1
     0.08764242     0.82909728     0.10000000 1 1 1
     0.10429448     0.84662577     0.10000000 1 1 1
     0.12094654     0.86415425     0.10000000 1 1 1
     0.13759860     0.88168273     0.10000000 1 1 1
     0.15425066     0.89921122     0.10000000 1 1 1
     0.17090272     0.91673970     0.10000000 1 1 1
     0.18755478     0.93426819     0.10000000 1 1 1
     0.20420684     0.95179667     0.10000000 1 1 1
     0.22085890     0.96932515     0.10000000 1 1 1
     0.23751096     0.98685364     0.10000000 1 1 1
     0.00525855     0.68974584     0.10000000 1 1 1
     0.02191060     0.70727432     0.10000000 1 1 1
     0.03856266     0.72480280     0.10000000 1 1 1
     0.05521472     0.74233129     0.10000000 1 1 1
     0.07186678     0.75985977     0.10000000 1 1 1
     0.08851884     0.77738826     0.10000000 1 1 1
     0.10517090     0.79491674     0.10000000 1 1 1
     0.12182296     0.81244522     0.10000000 1 1 1
     0.13847502     0.82997371     0.10000000 1 1 1
     0.15512708     0.84750219     0.10000000 1 1 1
     0.17177914     0.86503067     0.10000000 1 1 1
     0.18843120     0.88255916     0.10000000 1 1 1
     0.20508326     0.90008764     0.10000000 1 1 1
     0.22173532     0.91761613     0.10000000 1 1 1
     0.23838738     0.93514461     0.10000000 1 1 1
     0.25503944     0.95267309     0.10000000 1 1 1
     0.27169150     0.97020158     0.10000000 1 1 1
     0.28834356     0.98773006     0.10000000 1 1 1
     0.00613497     0.63803681     0.10000000 1 1 1
     0.02278703     0.65556529     0.10000000 1 1 1
     0.03943909     0.67309378     0.10000000 1 1 1
     0.05609115     0.69062226     0.10000000 1 1 1
     0.07274321     0.70815074     0.10000000 1 1 1
     0.08939527     0.72567923     0.10000000 1 1 1
     0.10604733     0.74320771     0.10000000 1 1 1
     0.12269939     0.76073620     0.10000000 1 1 1
     0.13935145     0.77826468     0.10000000 1 1 1
     0.15600351     0.79579316     0.10000000 1 1 1
     0.17265557     0.81332165     0.10000000 1 1 1
     0.18930762     0.83085013     0.10000000 1 1 1
     0.20595968     0.84837862     0.10000000 1 1 1
     0.22261174     0.86590710     0.10000000 1 1 1
     0.23926380     0.88343558     0.10000000 1 1 1
     0.25591586     0.90096407     0.10000000 1 1 1
     0.27256792     0.91849255     0.10000000 1 1 1
     0.28921998     0.93602103     0.10000000 1 1 1
     0.30587204     0.95354952     0.10000000 1 1 1
     0.32252410     0.97107800     0.10000000 1 1 1
     0.33917616     0.98860649     0.10000000 1 1 1
     0.00701139     0.58632778     0.10000000 1 1 1
     0.02366345     0.60385627     0.10000000 1 1 1
     0.04031551     0.62138475     0.10000000 1 1 1
     0.05696757     0.63891323     0.10000000 1 1 1
     0.07361963     0.65644172     0.10000000 1 1 1
     0.09027169     0.67397020     0.10000000 1 1 1
     0.10692375     0.69149869     0.10000000 1 1 1
     0.12357581     0.70902717     0.10000000 1 1 1
     0.14022787     0.72655565     0.10000000 1 1 1
     0.15687993     0.74408414     0.10000000 1 1 1
     0.17353199     0.76161262     0.10000000 1 1 1
     0.19018405     0.77914110     0.10000000 1 1 1
     0.20683611     0.79666959     0.10000000 1 1 1
     0.22348817     0.81419807     0.10000000 1 1 1
     0.24014023     0.83172656     0.10000000 1 1 1
     0.25679229     0.84925504     0.10000000 1 1 1
     0.27344435     0.86678352     0.10000000 1 1 1
     0.29009641     0.88431201     0.10000000 1 1 1
     0.30674847     0.90184049     0.10000000 1 1 1
     0.32340053     0.91936897     0.10000000 1 1 1
     0.34005259     0.93689746     0.10000000 1 1 1
     0.35670465     0.95442594     0.10000000 1 1 1
     0.37335670     0.97195443     0.10000000 1 1 1
     0.39000876     0.98948291     0.10000000 1 1 1
     0.00788782     0.53461876     0.10000000 1 1 1
     0.02453988     0.55214724     0.10000000 1 1 1
     0.04119194     0.56967572     0.10000000 1 1 1
     0.05784400     0.58720421     0.10000000 1 1 1
     0.07449606     0.60473269     0.10000000 1 1 1
     0.09114812     0.62226117     0.10000000 1 1 1
     0.10780018     0.63978966     0.10000000 1 1 1
     0.12445223     0.65731814     0.10000000 1 1 1
     0.14110429     0.67484663     0.10000000 1 1 1
     0.15775635     0.69237511     0.10000000 1 1 1
     0.17440841     0.70990359     0.10000000 1 1 1
     0.19106047     0.72743208     0.10000000 1 1 1
     0.20771253     0.74496056     0.10000000 1 1 1
     0.22436459     0.76248904     0.10000000 1 1 1
     0.24101665     0.78001753     0.10000000 1 1 1
     0.25766871     0.79754601     0.10000000 1 1 1
     0.27432077     0.81507450     0.10000000 1 1 1
     0.29097283     0.83260298     0.10000000 1 1 1
     0.30762489     0.85013146     0.10000000 1 1 1
     0.32427695     0.86765995     0.10000000 1 1 1
     0.34092901     0.88518843     0.10000000 1 1 1
     0.35758107     0.90271691     0.10000000 1 1 1
     0.37423313     0.92024540     0.10000000 1 1 1
     0.39088519     0.93777388     0.10000000 1 1 1
     0.40753725     0.95530237     0.10000000 1 1 1
     0.42418931     0.97283085     0.10000000 1 1 1
     0.44084137     0.99035933     0.10000000 1 1 1
     0.00876424     0.48290973     0.10000000 1 1 1
     0.02541630     0.50043821     0.10000000 1 1 1
     0.04206836     0.51796670     0.10000000 1 1 1
     0.05872042     0.53549518     0.10000000 1 1 1
     0.07537248     0.55302366     0.10000000 1 1 1
     0.09202454     0.57055215     0.10000000 1 1 1
     0.10867660     0.58808063     0.10000000 1 1 1
     0.12532866     0.60560911     0.10000000 1 1 1
     0.14198072     0.62313760     0.10000000 1 1 1
     0.15863278     0.64066608     0.10000000 1 1 1
     0.17528484     0.65819457     0.10000000 1 1 1
     0.19193690     0.67572305     0.10000000 1 1 1
     0.20858896     0.69325153     0.10000000 1 1 1
     0.22524102     0.71078002     0.10000000 1 1 1
     0.24189308     0.72830850     0.10000000 1 1 1
     0.25854514     0.74583699     0.10000000 1 1 1
     0.27519720     0.76336547     0.10000000 1 1 1
     0.29184926     0.78089395     0.10000000 1 1 1
     0.30850131     0.79842244     0.10000000 1 1 1
     0.32515337     0.81595092     0.10000000 1 1 1
     0.34180543     0.83347940     0.10000000 1 1 1
     0.35845749     0.85100789     0.10000000 1 1 1
     0.37510955     0.86853637     0.10000000 1 1 1
     0.39176161     0.88606486     0.10000000 1 1 1
     0.40841367     0.90359334     0.10000000 1 1 1
     0.42506573     0.92112182     0.10000000 1 1 1
     0.44171779     0.93865031     0.10000000 1 1 1
     0.45836985     0.95617879     0.10000000 1 1 1
     0.47502191     0.97370727     0.10000000 1 1 1
     0.49167397     0.99123576     0.10000000 1 1 1
     0.00964067     0.43120070     0.10000000 1 1 1
     0.02629273     0.44872918     0.10000000 1 1 1
     0.04294479     0.46625767     0.10000000 1 1 1
     0.05959684     0.48378615     0.10000000 1 1 1
     0.07624890     0.50131464     0.10000000 1 1 1
     0.09290096     0.51884312     0.10000000 1 1 1
     0.10955302     0.53637160     0.10000000 1 1 1
     0.12620508     0.55390009     0.10000000 1 1 1
     0.14285714     0.57142857     0.10000000 1 1 1
     0.15950920     0.58895706     0.10000000 1 1 1
     0.17616126     0.60648554     0.10000000 1 1 1
     0.19281332     0.62401402     0.10000000 1 1 1
     0.20946538     0.64154251     0.10000000 1 1 1
     0.22611744     0.65907099     0.10000000 1 1 1
     0.24276950     0.67659947     0.10000000 1 1 1
     0.25942156     0.69412796     0.10000000 1 1 1
     0.27607362     0.71165644     0.10000000 1 1 1
     0.29272568     0.72918493     0.10000000 1 1 1
     0.30937774     0.74671341     0.10000000 1 1 1
     0.32602980     0.76424189     0.10000000 1 1 1
     0.34268186     0.78177038     0.10000000 1 1 1
     0.35933392     0.79929886     0.10000000 1 1 1
     0.37598598     0.81682734     0.10000000 1 1 1
     0.39263804     0.83435583     0.10000000 1 1 1
     0.40929010     0.85188431     0.10000000 1 1 1
     0.42594216     0.86941280     0.10000000 1 1 1
     0.44259422     0.88694128     0.10000000 1 1 1
     0.45924628     0.90446976     0.10000000 1 1 1
     0.47589833     0.92199825     0.10000000 1 1 1
     0.49255039     0.93952673     0.10000000 1 1 1
     0.50920245     0.95705521     0.10000000 1 1 1
     0.52585451     0.97458370     0.10000000 1 1 1
     0.54250657     0.99211218     0.10000000 1 1 1
     0.01051709     0.37949167     0.10000000 1 1 1
     0.02716915     0.39702016     0.10000000 1 1 1
     0.04382121     0.41454864     0.10000000 1 1 1
     0.06047327     0.43207713     0.10000000 1 1 1
     0.07712533     0.44960561     0.10000000 1 1 1
     0.09377739     0.46713409     0.10000000 1 1 1
     0.11042945     0.48466258     0.10000000 1 1 1
     0.12708151     0.50219106     0.10000000 1 1 1
     0.14373357     0.51971954     0.10000000 1 1 1
     0.16038563     0.53724803     0.10000000 1 1 1
     0.17703769     0.55477651     0.10000000 1 1 1
     0.19368975     0.57230500     0.10000000 1 1 1
     0.21034181     0.58983348     0.10000000 1 1 1
     0.22699387     0.60736196     0.10000000 1 1 1
     0.24364592     0.62489045     0.10000000 1 1 1
     0.26029798     0.64241893     0.10000000 1 1 1
     0.27695004     0.65994741     0.10000000 1 1 1
     0.29360210     0.67747590     0.10000000 1 1 1
     0.31025416     0.69500438     0.10000000 1 1 1
     0.32690622     0.71253287     0.10000000 1 1 1
     0.34355828     0.73006135     0.10000000 1 1 1
     0.36021034     0.74758983     0.10000000 1 1 1
     0.37686240     0.76511832     0.10000000 1 1 1
     0.39351446     0.78264680     0.10000000 1 1 1
     0.41016652     0.80017528     0.10000000 1 1 1
     0.42681858     0.81770377     0.10000000 1 1 1
     0.44347064     0.83523225     0.10000000 1 1 1
     0.46012270     0.85276074     0.10000000 1 1 1
     0.47677476     0.87028922     0.10000000 1 1 1
     0.49342682     0.88781770     0.10000000 1 1 1
     0.51007888     0.90534619     0.10000000 1 1 1
     0.52673094     0.92287467     0.10000000 1 1 1
     0.54338300     0.94040316     0.10000000 1 1 1
     0.56003506     0.95793164     0.10000000 1 1 1
     0.57668712     0.97546012     0.10000000 1 1 1
     0.59333918     0.99298861     0.10000000 1 1 1
     0.01139351     0.32778265     0.10000000 1 1 1
     0.02804557     0.34531113     0.10000000 1 1 1
     0.04469763     0.36283961     0.10000000 1 1 1
     0.06134969     0.38036810     0.10000000 1 1 1
     0.07800175     0.39789658     0.10000000 1 1 1
     0.09465381     0.41542507     0.10000000 1 1 1
     0.11130587     0.43295355     0.10000000 1 1 1
     0.12795793     0.45048203     0.10000000 1 1 1
     0.14460999     0.46801052     0.10000000 1 1 1
     0.16126205     0.48553900     0.10000000 1 1 1
     0.17791411     0.50306748     0.10000000 1 1 1
     0.19456617     0.52059597     0.10000000 1 1 1
     0.21121823     0.53812445     0.10000000 1 1 1
     0.22787029     0.55565294     0.10000000 1 1 1
     0.24452235     0.57318142     0.10000000 1 1 1
     0.26117441     0.59070990     0.10000000 1 1 1
     0.27782647     0.60823839     0.10000000 1 1 1
     0.29447853     0.62576687     0.10000000 1 1 1
     0.31113059     0.64329535     0.10000000 1 1 1
     0.32778265     0.66082384     0.10000000 1 1 1
     0.34443471     0.67835232     0.10000000 1 1 1
     0.36108677     0.69588081     0.10000000 1 1 1
     0.37773883     0.71340929     0.10000000 1 1 1
     0.39439089     0.73093777     0.10000000 1 1 1
     0.41104294     0.74846626     0.10000000 1 1 1
     0.42769500     0.76599474     0.10000000 1 1 1
     0.44434706     0.78352323     0.10000000 1 1 1
     0.46099912     0.80105171     0.10000000 1 1 1
     0.47765118     0.81858019     0.10000000 1 1 1
     0.49430324     0.83610868     0.10000000 1 1 1
     0.51095530     0.85363716     0.10000000 1 1 1
     0.52760736     0.87116564     0.10000000 1 1 1
     0.54425942     0.88869413     0.10000000 1 1 1
     0.56091148     0.90622261     0.10000000 1 1 1
     0.57756354     0.92375110     0.10000000 1 1 1
     0.59421560     0.94127958     0.10000000 1 1 1
     0.61086766     0.95880806     0.10000000 1 1 1
     0.62751972     0.97633655     0.10000000 1 1 1
     0.64417178     0.99386503     0.10000000 1 1 1
     0.01226994     0.27607362     0.10000000 1 1 1
     0.02892200     0.29360210     0.10000000 1 1 1
     0.04557406     0.31113059     0.10000000 1 1 1
     0.06222612     0.32865907     0.10000000 1 1 1
     0.07887818     0.34618755     0.10000000 1 1 1
     0.09553024     0.36371604     0.10000000 1 1 1
     0.11218230     0.38124452     0.10000000 1 1 1
     0.12883436     0.39877301     0.10000000 1 1 1
     0.14548642     0.41630149     0.10000000 1 1 1
     0.16213848     0.43382997     0.10000000 1 1 1
     0.17879053     0.45135846     0.10000000 1 1 1
     0.19544259     0.46888694     0.10000000 1 1 1
     0.21209465     0.48641543     0.10000000 1 1 1
     0.22874671     0.50394391     0.10000000 1 1 1
     0.24539877     0.52147239     0.10000000 1 1 1
     0.26205083     0.53900088     0.10000000 1 1 1
     0.27870289     0.55652936     0.10000000 1 1 1
     0.29535495     0.57405784     0.10000000 1 1 1
     0.31200701     0.59158633     0.10000000 1 1 1
     0.32865907     0.60911481     0.10000000 1 1 1
     0.34531113     0.62664330     0.10000000 1 1 1
     0.36196319     0.64417178     0.10000000 1 1 1
     0.37861525     0.66170026     0.10000000 1 1 1
     0.39526731     0.67922875     0.10000000 1 1 1
     0.41191937     0.69675723     0.10000000 1 1 1
     0.42857143     0.71428571     0.10000000 1 1 1
     0.44522349     0.73181420     0.10000000 1 1 1
     0.46187555     0.74934268     0.10000000 1 1 1
     0.47852761     0.76687117     0.10000000 1 1 1
     0.49517967     0.78439965     0.10000000 1 1 1
     0.51183173     0.80192813     0.10000000 1 1 1
     0.52848379     0.81945662     0.10000000 1 1 1
     0.54513585     0.83698510     0.10000000 1 1 1
     0.56178791     0.85451358     0.10000000 1 1 1
     0.57843996     0.87204207     0.10000000 1 1 1
     0.59509202     0.88957055     0.10000000 1 1 1
     0.61174408     0.90709904     0.10000000 1 1 1
     0.62839614     0.92462752     0.10000000 1 1 1
     0.64504820     0.94215600     0.10000000 1 1 1
     0.66170026     0.95968449     0.10000000 1 1 1
     0.67835232     0.97721297     0.10000000 1 1 1
     0.69500438     0.99474145     0.10000000 1 1 1
     0.01314636     0.22436459     0.10000000 1 1 1
     0.02979842     0.24189308     0.10000000 1 1 1
     0.04645048     0.25942156     0.10000000 1 1 1
     0.06310254     0.27695004     0.10000000 1 1 1
     0.07975460     0.29447853     0.10000000 1 1 1
     0.09640666     0.31200701     0.10000000 1 1 1
     0.11305872     0.32953550     0.10000000 1 1 1
     0.12971078     0.34706398     0.10000000 1 1 1
     0.14636284     0.36459246     0.10000000 1 1 1
     0.16301490     0.38212095     0.10000000 1 1 1
     0.17966696     0.39964943     0.10000000 1 1 1
     0.19631902     0.41717791     0.10000000 1 1 1
     0.21297108     0.43470640     0.10000000 1 1 1
     0.22962314     0.45223488     0.10000000 1 1 1
     0.24627520     0.46976337     0.10000000 1 1 1
     0.26292726     0.48729185     0.10000000 1 1 1
     0.27957932     0.50482033     0.10000000 1 1 1
     0.29623138     0.52234882     0.10000000 1 1 1
     0.31288344     0.53987730     0.10000000 1 1 1
     0.32953550     0.55740578     0.10000000 1 1 1
     0.34618755     0.57493427     0.10000000 1 1 1
     0.36283961     0.59246275     0.10000000 1 1 1
     0.37949167     0.60999124     0.10000000 1 1 1
     0.39614373     0.62751972     0.10000000 1 1 1
     0.41279579     0.64504820     0.10000000 1 1 1
     0.42944785     0.66257669     0.10000000 1 1 1
     0.44609991     0.68010517     0.10000000 1 1 1
     0.46275197     0.69763365     0.10000000 1 1 1
     0.47940403     0.71516214     0.10000000 1 1 1
     0.49605609     0.73269062     0.10000000 1 1 1
     0.51270815     0.75021911     0.10000000 1 1 1
     0.52936021     0.76774759     0.10000000 1 1 1
     0.54601227     0.78527607     0.10000000 1 1 1
     0.56266433     0.80280456     0.10000000 1 1 1
     0.57931639     0.82033304     0.10000000 1 1 1
     0.59596845     0.83786152     0.10000000 1 1 1
     0.61262051     0.85539001     0.10000000 1 1 1
     0.62927257     0.87291849     0.10000000 1 1 1
     0.64592463     0.89044698     0.10000000 1 1 1
     0.66257669     0.90797546     0.10000000 1 1 1
     0.67922875     0.92550394     0.10000000 1 1 1
     0.69588081     0.94303243     0.10000000 1 1 1
     0.71253287     0.96056091     0.10000000 1 1 1
     0.72918493     0.97808940     0.10000000 1 1 1
     0.74583699     0.99561788     0.10000000 1 1 1
     0.01402279     0.17265557     0.10000000 1 1 1
     0.03067485     0.19018405     0.10000000 1 1 1
     0.04732691     0.20771253     0.10000000 1 1 1
     0.06397897     0.22524102     0.10000000 1 1 1
     0.08063103     0.24276950     0.10000000 1 1 1
     0.09728309     0.26029798     0.10000000 1 1 1
     0.11393514     0.27782647     0.10000000 1 1 1
     0.13058720     0.29535495     0.10000000 1 1 1
     0.14723926     0.31288344     0.10000000 1 1 1
     0.16389132     0.33041192     0.10000000 1 1 1
     0.18054338     0.34794040     0.10000000 1 1 1
     0.19719544     0.36546889     0.10000000 1 1 1
     0.21384750     0.38299737     0.10000000 1 1 1
     0.23049956     0.40052585     0.10000000 1 1 1
     0.24715162     0.41805434     0.10000000 1 1 1
     0.26380368     0.43558282     0.10000000 1 1 1
     0.28045574     0.45311131     0.10000000 1 1 1
     0.29710780     0.47063979     0.10000000 1 1 1
     0.31375986     0.48816827     0.10000000 1 1 1
     0.33041192     0.50569676     0.10000000 1 1 1
     0.34706398     0.52322524     0.10000000 1 1 1
     0.36371604     0.54075372     0.10000000 1 1 1
     0.38036810     0.55828221     0.10000000 1 1 1
     0.39702016     0.57581069     0.10000000 1 1 1
     0.41367222     0.59333918     0.10000000 1 1 1
     0.43032428     0.61086766     0.10000000 1 1 1
     0.44697634     0.62839614     0.10000000 1 1 1
     0.46362840     0.64592463     0.10000000 1 1 1
     0.48028046     0.66345311     0.10000000 1 1 1
     0.49693252     0.68098160     0.10000000 1 1 1
     0.51358457     0.69851008     0.10000000 1 1 1
     0.53023663     0.71603856     0.10000000 1 1 1
     0.54688869     0.73356705     0.10000000 1 1 1
     0.56354075     0.75109553     0.10000000 1 1 1
     0.58019281     0.76862401     0.10000000 1 1 1
     0.59684487     0.78615250     0.10000000 1 1 1
     0.61349693     0.80368098     0.10000000 1 1 1
     0.63014899     0.82120947     0.10000000 1 1 1
     0.64680105     0.83873795     0.10000000 1 1 1
     0.66345311     0.85626643     0.10000000 1 1 1
     0.68010517     0.87379492     0.10000000 1 1 1
     0.69675723     0.89132340     0.10000000 1 1 1
     0.71340929     0.90885188     0.10000000 1 1 1
     0.73006135     0.92638037     0.10000000 1 1 1
     0.74671341     0.94390885     0.10000000 1 1 1
     0.76336547     0.96143734     0.10000000 1 1 1
     0.78001753     0.97896582     0.10000000 1 1 1
     0.79666959     0.99649430     0.10000000 1 1 1
     0.01489921     0.12094654     0.10000000 1 1 1
     0.03155127     0.13847502     0.10000000 1 1 1
     0.04820333     0.15600351     0.10000000 1 1 1
     0.06485539     0.17353199     0.10000000 1 1 1
     0.08150745     0.19106047     0.10000000 1 1 1
     0.09815951     0.20858896     0.10000000 1 1 1
     0.11481157     0.22611744     0.10000000 1 1 1
     0.13146363     0.24364592     0.10000000 1 1 1
     0.14811569     0.26117441     0.10000000 1 1 1
     0.16476775     0.27870289     0.10000000 1 1 1
     0.18141981     0.29623138     0.10000000 1 1 1
     0.19807187     0.31375986     0.10000000 1 1 1
     0.21472393     0.33128834     0.10000000 1 1 1
     0.23137599     0.34881683     0.10000000 1 1 1
     0.24802805     0.36634531     0.10000000 1 1 1
     0.26468011     0.38387379     0.10000000 1 1 1
     0.28133216     0.40140228     0.10000000 1 1 1
     0.29798422     0.41893076     0.10000000 1 1 1
     0.31463628     0.43645925     0.10000000 1 1 1
     0.33128834     0.45398773     0.10000000 1 1 1
     0.34794040     0.47151621     0.10000000 1 1 1
     0.36459246     0.48904470     0.10000000 1 1 1
     0.38124452     0.50657318     0.10000000 1 1 1
     0.39789658     0.52410167     0.10000000 1 1 1
     0.41454864     0.54163015     0.10000000 1 1 1
     0.43120070     0.55915863     0.10000000 1 1 1
     0.44785276     0.57668712     0.10000000 1 1 1
     0.46450482     0.59421560     0.10000000 1 1 1
     0.48115688     0.61174408     0.10000000 1 1 1
     0.49780894     0.62927257     0.10000000 1 1 1
     0.51446100     0.64680105     0.10000000 1 1 1
     0.53111306     0.66432954     0.10000000 1 1 1
     0.54776512     0.68185802     0.10000000 1 1 1
     0.56441718     0.69938650     0.10000000 1 1 1
     0.58106924     0.71691499     0.10000000 1 1 1
     0.59772130     0.73444347     0.10000000 1 1 1
     0.61437336     0.75197195     0.10000000 1 1 1
     0.63102542     0.76950044     0.10000000 1 1 1
     0.64767748     0.78702892     0.10000000 1 1 1
     0.66432954     0.80455741     0.10000000 1 1 1
     0.68098160     0.82208589     0.10000000 1 1 1
     0.69763365     0.83961437     0.10000000 1 1 1
     0.71428571     0.85714286     0.10000000 1 1 1
     0.73093777     0.87467134     0.10000000 1 1 1
     0.74758983     0.89219982     0.10000000 1 1 1
     0.76424189     0.90972831     0.10000000 1 1 1
     0.78089395     0.92725679     0.10000000 1 1 1
     0.79754601     0.94478528     0.10000000 1 1 1
     0.81419807     0.96231376     0.10000000 1 1 1
     0.83085013     0.97984224     0.10000000 1 1 1
     0.84750219     0.99737073     0.10000000 1 1 1
     0.01577564     0.06923751     0.10000000 1 1 1
     0.03242770     0.08676599     0.10000000 1 1 1
     0.04907975     0.10429448     0.10000000 1 1 1
     0.06573181     0.12182296     0.10000000 1 1 1
     0.08238387     0.13935145     0.10000000 1 1 1
     0.09903593     0.15687993     0.10000000 1 1 1
     0.11568799     0.17440841     0.10000000 1 1 1
     0.13234005     0.19193690     0.10000000 1 1 1
     0.14899211     0.20946538     0.10000000 1 1 1
     0.16564417     0.22699387     0.10000000 1 1 1
     0.18229623     0.24452235     0.10000000 1 1 1
     0.19894829     0.26205083     0.10000000 1 1 1
     0.21560035     0.27957932     0.10000000 1 1 1
     0.23225241     0.29710780     0.10000000 1 1 1
     0.24890447     0.31463628     0.10000000 1 1 1
     0.26555653     0.33216477     0.10000000 1 1 1
     0.28220859     0.34969325     0.10000000 1 1 1
     0.29886065     0.36722174     0.10000000 1 1 1
     0.31551271     0.38475022     0.10000000 1 1 1
     0.33216477     0.40227870     0.10000000 1 1 1
     0.34881683     0.41980719     0.10000000 1 1 1
     0.36546889     0.43733567     0.10000000 1 1 1
     0.38212095     0.45486415     0.10000000 1 1 1
     0.39877301     0.47239264     0.10000000 1 1 1
     0.41542507     0.48992112     0.10000000 1 1 1
     0.43207713     0.50744961     0.10000000 1 1 1
     0.44872918     0.52497809     0.10000000 1 1 1
     0.46538124     0.54250657     0.10000000 1 1 1
     0.48203330     0.56003506     0.10000000 1 1 1
     0.49868536     0.57756354     0.10000000 1 1 1
     0.51533742     0.59509202     0.10000000 1 1 1
     0.53198948     0.61262051     0.10000000 1 1 1
     0.54864154     0.63014899     0.10000000 1 1 1
     0.56529360     0.64767748     0.10000000 1 1 1
     0.58194566     0.66520596     0.10000000 1 1 1
     0.59859772     0.68273444     0.10000000 1 1 1
     0.61524978     0.70026293     0.10000000 1 1 1
     0.63190184     0.71779141     0.10000000 1 1 1
     0.64855390     0.73531989     0.10000000 1 1 1
     0.66520596     0.75284838     0.10000000 1 1 1
     0.68185802     0.77037686     0.10000000 1 1 1
     0.69851008     0.78790535     0.10000000 1 1 1
     0.71516214     0.80543383     0.10000000 1 1 1
     0.73181420     0.82296231     0.10000000 1 1 1
     0.74846626     0.84049080     0.10000000 1 1 1
     0.76511832     0.85801928     0.10000000 1 1 1
     0.78177038     0.87554777     0.10000000 1 1 1
     0.79842244     0.89307625     0.10000000 1 1 1
     0.81507450     0.91060473     0.10000000 1 1 1
     0.83172656     0.92813322     0.10000000 1 1 1
     0.84837862     0.94566170     0.10000000 1 1 1
     0.86503067     0.96319018     0.10000000 1 1 1
     0.88168273     0.98071867     0.10000000 1 1 1
     0.89833479     0.99824715     0.10000000 1 1 1
     0.00000000     0.00000000     0.10000000 1 1 1
     0.01665206     0.01752848     0.10000000 1 1 1
     0.03330412     0.03505697     0.10000000 1 1 1
     0.04995618     0.05258545     0.10000000 1 1 1
     0.06660824     0.07011394     0.10000000 1 1 1
     0.08326030     0.08764242     0.10000000 1 1 1
     0.09991236     0.10517090     0.10000000 1 1 1
     0.11656442     0.12269939     0.10000000 1 1 1
     0.13321648     0.14022787     0.10000000 1 1 1
     0.14986854     0.15775635     0.10000000 1 1 1
     0.16652060     0.17528484     0.10000000 1 1 1
     0.18317266     0.19281332     0.10000000 1 1 1
     0.19982472     0.21034181     0.10000000 1 1 1
     0.21647677     0.22787029     0.10000000 1 1 1
     0.23312883     0.24539877     0.10000000 1 1 1
     0.24978089     0.26292726     0.10000000 1 1 1
     0.26643295     0.28045574     0.10000000 1 1 1
     0.28308501     0.29798422     0.10000000 1 1 1
     0.29973707     0.31551271     0.10000000 1 1 1
     0.31638913     0.33304119     0.10000000 1 1 1
     0.33304119     0.35056968     0.10000000 1 1 1
     0.34969325     0.36809816     0.10000000 1 1 1
     0.36634531     0.38562664     0.10000000 1 1 1
     0.38299737     0.40315513     0.10000000 1 1 1
     0.39964943     0.42068361     0.10000000 1 1 1
     0.41630149     0.43821209     0.10000000 1 1 1
     0.43295355     0.45574058     0.10000000 1 1 1
     0.44960561     0.47326906     0.10000000 1 1 1
     0.46625767     0.49079755     0.10000000 1 1 1
     0.48290973     0.50832603     0.10000000 1 1 1
     0.49956179     0.52585451     0.10000000 1 1 1
     0.51621385     0.54338300     0.10000000 1 1 1
     0.53286591     0.56091148     0.10000000 1 1 1
     0.54951797     0.57843996     0.10000000 1 1 1
     0.56617003     0.59596845     0.10000000 1 1 1
     0.58282209     0.61349693     0.10000000 1 1 1
     0.59947415     0.63102542     0.10000000 1 1 1
     0.61612621     0.64855390     0.10000000 1 1 1
     0.63277826     0.66608238     0.10000000 1 1 1
     0.64943032     0.68361087     0.10000000 1 1 1
     0.66608238     0.70113935     0.10000000 1 1 1
     0.68273444     0.71866784     0.10000000 1 1 1
     0.69938650     0.73619632     0.10000000 1 1 1
     0.71603856     0.75372480     0.10000000 1 1 1
     0.73269062     0.77125329     0.10000000 1 1 1
     0.74934268     0.78878177     0.10000000 1 1 1
     0.76599474     0.80631025     0.10000000 1 1 1
     0.78264680     0.82383874     0.10000000 1 1 1
     0.79929886     0.84136722     0.10000000 1 1 1
     0.81595092     0.85889571     0.10000000 1 1 1
     0.83260298     0.87642419     0.10000000 1 1 1
     0.84925504     0.89395267     0.10000000 1 1 1
     0.86590710     0.91148116     0.10000000 1 1 1
     0.88255916     0.92900964     0.10000000 1 1 1
     0.89921122     0.94653812     0.10000000 1 1 1
     0.91586328     0.96406661     0.10000000 1 1 1
     0.93251534     0.98159509     0.10000000 1 1 1