Generated by Twist2D
    1.0
     109.44775000      61.76969494       0.00000000
       1.22975000     125.66937936       0.00000000
       0.00000000       0.00000000      30.00000000
    C
    10444
Direct
     0.00038300     0.96591344     0.10000000
     0.01148985     0.97740329     0.10000000
     0.02259671     0.98889314     0.10000000
     0.00076599     0.93182689     0.10000000
     0.01187285     0.94331674     0.10000000
     0.02297970     0.95480659     0.10000000
     0.03408656     0.96629644     0.10000000
     0.04519341     0.97778629     0.10000000
     0.05630027     0.98927614     0.10000000
     0.00114899     0.89774033     0.10000000
     0.01225584     0.90923018     0.10000000
     0.02336270     0.92072003     0.10000000
     0.03446955     0.93220988     0.10000000
     0.04557641     0.94369973     0.10000000
     0.05668326     0.95518958     0.10000000
     0.06779012     0.96667943     0.10000000
     0.07889697     0.97816928     0.10000000
     0.09000383     0.98965913     0.10000000
     0.00153198     0.86365377     0.10000000
     0.01263884     0.87514362     0.10000000
     0.02374569     0.88663347     0.10000000
     0.03485255     0.89812332     0.10000000
     0.04595940     0.90961318     0.10000000
     0.05706626     0.92110303     0.10000000
     0.06817311     0.93259288     0.10000000
     0.07927997     0.94408273     0.10000000
     0.09038682     0.95557258     0.10000000
     0.10149368     0.96706243     0.10000000
     0.11260054     0.97855228     0.10000000
     0.12370739     0.99004213     0.10000000
     0.00191498     0.82956722     0.10000000
     0.01302183     0.84105707     0.10000000
     0.02412869     0.85254692     0.10000000
     0.03523554     0.86403677     0.10000000
     0.04634240     0.87552662     0.10000000
     0.05744925     0.88701647     0.10000000
     0.06855611     0.89850632     0.10000000
     0.07966296     0.90999617     0.10000000
     0.09076982     0.92148602     0.10000000
     0.10187668     0.93297587     0.10000000
     0.11298353     0.94446572     0.10000000
     0.12409039     0.95595557     0.10000000
     0.13519724     0.96744542     0.10000000
     0.14630410     0.97893527     0.10000000
     0.15741095     0.99042512     0.10000000
     0.00229797     0.79548066     0.10000000
     0.01340483     0.80697051     0.10000000
     0.02451168     0.81846036     0.10000000
     0.03561854     0.82995021     0.10000000
     0.04672539     0.84144006     0.10000000
     0.05783225     0.85292991     0.10000000
     0.06893910     0.86441976     0.10000000
     0.08004596     0.87590961     0.10000000
     0.09115282     0.88739946     0.10000000
     0.10225967     0.89888931     0.10000000
     0.11336653     0.91037917     0.10000000
     0.12447338     0.92186902     0.10000000
     0.13558024     0.93335887     0.10000000
     0.14668709     0.94484872     0.10000000
     0.15779395     0.95633857     0.10000000
     0.16890080     0.96782842     0.10000000
     0.18000766     0.97931827     0.10000000
     0.19111452     0.99080812     0.10000000
     0.00268097     0.76139410     0.10000000
     0.01378782     0.77288395     0.10000000
     0.02489468     0.78437380     0.10000000
     0.03600153     0.79586365     0.10000000
     0.04710839     0.80735350     0.10000000
     0.05821524     0.81884336     0.10000000
     0.06932210     0.83033321     0.10000000
     0.08042895     0.84182306     0.10000000
     0.09153581     0.85331291     0.10000000
     0.10264267     0.86480276     0.10000000
     0.11374952     0.87629261     0.10000000
     0.12485638     0.88778246     0.10000000
     0.13596323     0.89927231     0.10000000
     0.14707009     0.91076216     0.10000000
     0.15817694     0.92225201     0.10000000
     0.16928380     0.93374186     0.10000000
     0.18039065     0.94523171     0.10000000
     0.19149751     0.95672156     0.10000000
     0.20260437     0.96821141     0.10000000
     0.21371122     0.97970126     0.10000000
     0.22481808     0.99119111     0.10000000
     0.00306396     0.72730755     0.10000000
     0.01417082     0.73879740     0.10000000
     0.02527767     0.75028725     0.10000000
     0.03638453     0.76177710     0.10000000
     0.04749138     0.77326695     0.10000000
     0.05859824     0.78475680     0.10000000
     0.06970509     0.79624665     0.10000000
     0.08081195     0.80773650     0.10000000
     0.09191881     0.81922635     0.10000000
     0.10302566     0.83071620     0.10000000
     0.11413252     0.84220605     0.10000000
     0.12523937     0.85369590     0.10000000
     0.13634623     0.86518575     0.10000000
     0.14745308     0.87667560     0.10000000
     0.15855994     0.88816545     0.10000000
     0.16966679     0.89965530     0.10000000
     0.18077365     0.91114516     0.10000000
     0.19188051     0.92263501     0.10000000
     0.20298736     0.93412486     0.10000000
     0.21409422     0.94561471     0.10000000
     0.22520107     0.95710456     0.10000000
     0.23630793     0.96859441     0.10000000
     0.24741478     0.98008426     0.10000000
     0.25852164     0.99157411     0.10000000
     0.00344696     0.69322099     0.10000000
     0.01455381     0.70471084     0.10000000
     0.02566067     0.71620069     0.10000000
     0.03676752     0.72769054     0.10000000
     0.04787438     0.73918039     0.10000000
     0.05898123     0.75067024     0.10000000
     0.07008809     0.76216009     0.10000000
     0.08119494     0.77364994     0.10000000
     0.09230180     0.78513979     0.10000000
     0.10340866     0.79662964     0.10000000
     0.11451551     0.80811949     0.10000000
     0.12562237     0.81960935     0.10000000
     0.13672922     0.83109920     0.10000000
     0.14783608     0.84258905     0.10000000
     0.15894293     0.85407890     0.10000000
     0.17004979     0.86556875     0.10000000
     0.18115664     0.87705860     0.10000000
     0.19226350     0.88854845     0.10000000
     0.20337036     0.90003830     0.10000000
     0.21447721     0.91152815     0.10000000
     0.22558407     0.92301800     0.10000000
     0.23669092     0.93450785     0.10000000
     0.24779778     0.94599770     0.10000000
     0.25890463     0.95748755     0.10000000
     0.27001149     0.96897740     0.10000000
     0.28111835     0.98046725     0.10000000
     0.29222520     0.99195710     0.10000000
     0.00382995     0.65913443     0.10000000
     0.01493681     0.67062428     0.10000000
     0.02604366     0.68211413     0.10000000
     0.03715052     0.69360398     0.10000000
     0.04825737     0.70509383     0.10000000
     0.05936423     0.71658368     0.10000000
     0.07047108     0.72807354     0.10000000
     0.08157794     0.73956339     0.10000000
     0.09268480     0.75105324     0.10000000
     0.10379165     0.76254309     0.10000000
     0.11489851     0.77403294     0.10000000
     0.12600536     0.78552279     0.10000000
     0.13711222     0.79701264     0.10000000
     0.14821907     0.80850249     0.10000000
     0.15932593     0.81999234     0.10000000
     0.17043278     0.83148219     0.10000000
     0.18153964     0.84297204     0.10000000
     0.19264650     0.85446189     0.10000000
     0.20375335     0.86595174     0.10000000
     0.21486021     0.87744159     0.10000000
     0.22596706     0.88893144     0.10000000
     0.23707392     0.90042129     0.10000000
     0.24818077     0.91191115     0.10000000
     0.25928763     0.92340100     0.10000000
     0.27039448     0.93489085     0.10000000
     0.28150134     0.94638070     0.10000000
     0.29260820     0.95787055     0.10000000
     0.30371505     0.96936040     0.10000000
     0.31482191     0.98085025     0.10000000
     0.32592876     0.99234010     0.10000000
     0.00421295     0.62504787     0.10000000
     0.01531980     0.63653773     0.10000000
     0.02642666     0.64802758     0.10000000
     0.03753351     0.65951743     0.10000000
     0.04864037     0.67100728     0.10000000
     0.05974722     0.68249713     0.10000000
     0.07085408     0.69398698     0.10000000
     0.08196093     0.70547683     0.10000000
     0.09306779     0.71696668     0.10000000
     0.10417465     0.72845653     0.10000000
     0.11528150     0.73994638     0.10000000
     0.12638836     0.75143623     0.10000000
     0.13749521     0.76292608     0.10000000
     0.14860207     0.77441593     0.10000000
     0.15970892     0.78590578     0.10000000
     0.17081578     0.79739563     0.10000000
     0.18192264     0.80888548     0.10000000
     0.19302949     0.82037534     0.10000000
     0.20413635     0.83186519     0.10000000
     0.21524320     0.84335504     0.10000000
     0.22635006     0.85484489     0.10000000
     0.23745691     0.86633474     0.10000000
     0.24856377     0.87782459     0.10000000
     0.25967062     0.88931444     0.10000000
     0.27077748     0.90080429     0.10000000
     0.28188434     0.91229414     0.10000000
     0.29299119     0.92378399     0.10000000
     0.30409805     0.93527384     0.10000000
     0.31520490     0.94676369     0.10000000
     0.32631176     0.95825354     0.10000000
     0.33741861     0.96974339     0.10000000
     0.34852547     0.98123324     0.10000000
     0.35963232     0.99272309     0.10000000
     0.00459594     0.59096132     0.10000000
     0.01570280     0.60245117     0.10000000
     0.02680965     0.61394102     0.10000000
     0.03791651     0.62543087     0.10000000
     0.04902336     0.63692072     0.10000000
     0.06013022     0.64841057     0.10000000
     0.07123707     0.65990042     0.10000000
     0.08234393     0.67139027     0.10000000
     0.09345079     0.68288012     0.10000000
     0.10455764     0.69436997     0.10000000
     0.11566450     0.70585982     0.10000000
     0.12677135     0.71734967     0.10000000
     0.13787821     0.72883953     0.10000000
     0.14898506     0.74032938     0.10000000
     0.16009192     0.75181923     0.10000000
     0.17119877     0.76330908     0.10000000
     0.18230563     0.77479893     0.10000000
     0.19341249     0.78628878     0.10000000
     0.20451934     0.79777863     0.10000000
     0.21562620     0.80926848     0.10000000
     0.22673305     0.82075833     0.10000000
     0.23783991     0.83224818     0.10000000
     0.24894676     0.84373803     0.10000000
     0.26005362     0.85522788     0.10000000
     0.27116047     0.86671773     0.10000000
     0.28226733     0.87820758     0.10000000
     0.29337419     0.88969743     0.10000000
     0.30448104     0.90118728     0.10000000
     0.31558790     0.91267714     0.10000000
     0.32669475     0.92416699     0.10000000
     0.33780161     0.93565684     0.10000000
     0.34890846     0.94714669     0.10000000
     0.36001532     0.95863654     0.10000000
     0.37112218     0.97012639     0.10000000
     0.38222903     0.98161624     0.10000000
     0.39333589     0.99310609     0.10000000
     0.00497894     0.55687476     0.10000000
     0.01608579     0.56836461     0.10000000
     0.02719265     0.57985446     0.10000000
     0.03829950     0.59134431     0.10000000
     0.04940636     0.60283416     0.10000000
     0.06051321     0.61432401     0.10000000
     0.07162007     0.62581386     0.10000000
     0.08272692     0.63730372     0.10000000
     0.09383378     0.64879357     0.10000000
     0.10494064     0.66028342     0.10000000
     0.11604749     0.67177327     0.10000000
     0.12715435     0.68326312     0.10000000
     0.13826120     0.69475297     0.10000000
     0.14936806     0.70624282     0.10000000
     0.16047491     0.71773267     0.10000000
     0.17158177     0.72922252     0.10000000
     0.18268863     0.74071237     0.10000000
     0.19379548     0.75220222     0.10000000
     0.20490234     0.76369207     0.10000000
     0.21600919     0.77518192     0.10000000
     0.22711605     0.78667177     0.10000000
     0.23822290     0.79816162     0.10000000
     0.24932976     0.80965147     0.10000000
     0.26043661     0.82114133     0.10000000
     0.27154347     0.83263118     0.10000000
     0.28265033     0.84412103     0.10000000
     0.29375718     0.85561088     0.10000000
     0.30486404     0.86710073     0.10000000
     0.31597089     0.87859058     0.10000000
     0.32707775     0.89008043     0.10000000
     0.33818460     0.90157028     0.10000000
     0.34929146     0.91306013     0.10000000
     0.36039831     0.92454998     0.10000000
     0.37150517     0.93603983     0.10000000
     0.38261203     0.94752968     0.10000000
     0.39371888     0.95901953     0.10000000
     0.40482574     0.97050938     0.10000000
     0.41593259     0.98199923     0.10000000
     0.42703945     0.99348908     0.10000000
     0.00536193     0.52278820     0.10000000
     0.01646879     0.53427805     0.10000000
     0.02757564     0.54576791     0.10000000
     0.03868250     0.55725776     0.10000000
     0.04978935     0.56874761     0.10000000
     0.06089621     0.58023746     0.10000000
     0.07200306     0.59172731     0.10000000
     0.08310992     0.60321716     0.10000000
     0.09421678     0.61470701     0.10000000
     0.10532363     0.62619686     0.10000000
     0.11643049     0.63768671     0.10000000
     0.12753734     0.64917656     0.10000000
     0.13864420     0.66066641     0.10000000
     0.14975105     0.67215626     0.10000000
     0.16085791     0.68364611     0.10000000
     0.17196476     0.69513596     0.10000000
     0.18307162     0.70662581     0.10000000
     0.19417848     0.71811566     0.10000000
     0.20528533     0.72960552     0.10000000
     0.21639219     0.74109537     0.10000000
     0.22749904     0.75258522     0.10000000
     0.23860590     0.76407507     0.10000000
     0.24971275     0.77556492     0.10000000
     0.26081961     0.78705477     0.10000000
     0.27192646     0.79854462     0.10000000
     0.28303332     0.81003447     0.10000000
     0.29414018     0.82152432     0.10000000
     0.30524703     0.83301417     0.10000000
     0.31635389     0.84450402     0.10000000
     0.32746074     0.85599387     0.10000000
     0.33856760     0.86748372     0.10000000
     0.34967445     0.87897357     0.10000000
     0.36078131     0.89046342     0.10000000
     0.37188817     0.90195327     0.10000000
     0.38299502     0.91344313     0.10000000
     0.39410188     0.92493298     0.10000000
     0.40520873     0.93642283     0.10000000
     0.41631559     0.94791268     0.10000000
     0.42742244     0.95940253     0.10000000
     0.43852930     0.97089238     0.10000000
     0.44963615     0.98238223     0.10000000
     0.46074301     0.99387208     0.10000000
     0.00574493     0.48870165     0.10000000
     0.01685178     0.50019150     0.10000000
     0.02795864     0.51168135     0.10000000
     0.03906549     0.52317120     0.10000000
     0.05017235     0.53466105     0.10000000
     0.06127920     0.54615090     0.10000000
     0.07238606     0.55764075     0.10000000
     0.08349291     0.56913060     0.10000000
     0.09459977     0.58062045     0.10000000
     0.10570663     0.59211030     0.10000000
     0.11681348     0.60360015     0.10000000
     0.12792034     0.61509000     0.10000000
     0.13902719     0.62657985     0.10000000
     0.15013405     0.63806971     0.10000000
     0.16124090     0.64955956     0.10000000
     0.17234776     0.66104941     0.10000000
     0.18345462     0.67253926     0.10000000
     0.19456147     0.68402911     0.10000000
     0.20566833     0.69551896     0.10000000
     0.21677518     0.70700881     0.10000000
     0.22788204     0.71849866     0.10000000
     0.23898889     0.72998851     0.10000000
     0.25009575     0.74147836     0.10000000
     0.26120260     0.75296821     0.10000000
     0.27230946     0.76445806     0.10000000
     0.28341632     0.77594791     0.10000000
     0.29452317     0.78743776     0.10000000
     0.30563003     0.79892761     0.10000000
     0.31673688     0.81041746     0.10000000
     0.32784374     0.82190732     0.10000000
     0.33895059     0.83339717     0.10000000
     0.35005745     0.84488702     0.10000000
     0.36116430     0.85637687     0.10000000
     0.37227116     0.86786672     0.10000000
     0.38337802     0.87935657     0.10000000
     0.39448487     0.89084642     0.10000000
     0.40559173     0.90233627     0.10000000
     0.41669858     0.91382612     0.10000000
     0.42780544     0.92531597     0.10000000
     0.43891229     0.93680582     0.10000000
     0.45001915     0.94829567     0.10000000
     0.46112601     0.95978552     0.10000000
     0.47223286     0.97127537     0.10000000
     0.48333972     0.98276522     0.10000000
     0.49444657     0.99425507     0.10000000
     0.00612792     0.45461509     0.10000000
     0.01723478     0.46610494     0.10000000
     0.02834163     0.47759479     0.10000000
     0.03944849     0.48908464     0.10000000
     0.05055534     0.50057449     0.10000000
     0.06166220     0.51206434     0.10000000
     0.07276905     0.52355419     0.10000000
     0.08387591     0.53504404     0.10000000
     0.09498277     0.54653390     0.10000000
     0.10608962     0.55802375     0.10000000
     0.11719648     0.56951360     0.10000000
     0.12830333     0.58100345     0.10000000
     0.13941019     0.59249330     0.10000000
     0.15051704     0.60398315     0.10000000
     0.16162390     0.61547300     0.10000000
     0.17273075     0.62696285     0.10000000
     0.18383761     0.63845270     0.10000000
     0.19494447     0.64994255     0.10000000
     0.20605132     0.66143240     0.10000000
     0.21715818     0.67292225     0.10000000
     0.22826503     0.68441210     0.10000000
     0.23937189     0.69590195     0.10000000
     0.25047874     0.70739180     0.10000000
     0.26158560     0.71888165     0.10000000
     0.27269245     0.73037151     0.10000000
     0.28379931     0.74186136     0.10000000
     0.29490617     0.75335121     0.10000000
     0.30601302     0.76484106     0.10000000
     0.31711988     0.77633091     0.10000000
     0.32822673     0.78782076     0.10000000
     0.33933359     0.79931061     0.10000000
     0.35044044     0.81080046     0.10000000
     0.36154730     0.82229031     0.10000000
     0.37265416     0.83378016     0.10000000
     0.38376101     0.84527001     0.10000000
     0.39486787     0.85675986     0.10000000
     0.40597472     0.86824971     0.10000000
     0.41708158     0.87973956     0.10000000
     0.42818843     0.89122941     0.10000000
     0.43929529     0.90271926     0.10000000
     0.45040214     0.91420912     0.10000000
     0.46150900     0.92569897     0.10000000
     0.47261586     0.93718882     0.10000000
     0.48372271     0.94867867     0.10000000
     0.49482957     0.96016852     0.10000000
     0.50593642     0.97165837     0.10000000
     0.51704328     0.98314822     0.10000000
     0.52815013     0.99463807     0.10000000
     0.00651092     0.42052853     0.10000000
     0.01761777     0.43201838     0.10000000
     0.02872463     0.44350823     0.10000000
     0.03983148     0.45499809     0.10000000
     0.05093834     0.46648794     0.10000000
     0.06204519     0.47797779     0.10000000
     0.07315205     0.48946764     0.10000000
     0.08425890     0.50095749     0.10000000
     0.09536576     0.51244734     0.10000000
     0.10647262     0.52393719     0.10000000
     0.11757947     0.53542704     0.10000000
     0.12868633     0.54691689     0.10000000
     0.13979318     0.55840674     0.10000000
     0.15090004     0.56989659     0.10000000
     0.16200689     0.58138644     0.10000000
     0.17311375     0.59287629     0.10000000
     0.18422061     0.60436614     0.10000000
     0.19532746     0.61585599     0.10000000
     0.20643432     0.62734584     0.10000000
     0.21754117     0.63883570     0.10000000
     0.22864803     0.65032555     0.10000000
     0.23975488     0.66181540     0.10000000
     0.25086174     0.67330525     0.10000000
     0.26196859     0.68479510     0.10000000
     0.27307545     0.69628495     0.10000000
     0.28418231     0.70777480     0.10000000
     0.29528916     0.71926465     0.10000000
     0.30639602     0.73075450     0.10000000
     0.31750287     0.74224435     0.10000000
     0.32860973     0.75373420     0.10000000
     0.33971658     0.76522405     0.10000000
     0.35082344     0.77671390     0.10000000
     0.36193029     0.78820375     0.10000000
     0.37303715     0.79969360     0.10000000
     0.38414401     0.81118345     0.10000000
     0.39525086     0.82267331     0.10000000
     0.40635772     0.83416316     0.10000000
     0.41746457     0.84565301     0.10000000
     0.42857143     0.85714286     0.10000000
     0.43967828     0.86863271     0.10000000
     0.45078514     0.88012256     0.10000000
     0.46189200     0.89161241     0.10000000
     0.47299885     0.90310226     0.10000000
     0.48410571     0.91459211     0.10000000
     0.49521256     0.92608196     0.10000000
     0.50631942     0.93757181     0.10000000
     0.51742627     0.94906166     0.10000000
     0.52853313     0.96055151     0.10000000
     0.53963998     0.97204136     0.10000000
     0.55074684     0.98353121     0.10000000
     0.56185370     0.99502106     0.10000000
     0.00689391     0.38644198     0.10000000
     0.01800077     0.39793183     0.10000000
     0.02910762     0.40942168     0.10000000
     0.04021448     0.42091153     0.10000000
     0.05132133     0.43240138     0.10000000
     0.06242819     0.44389123     0.10000000
     0.07353504     0.45538108     0.10000000
     0.08464190     0.46687093     0.10000000
     0.09574876     0.47836078     0.10000000
     0.10685561     0.48985063     0.10000000
     0.11796247     0.50134048     0.10000000
     0.12906932     0.51283033     0.10000000
     0.14017618     0.52432018     0.10000000
     0.15128303     0.53581003     0.10000000
     0.16238989     0.54729989     0.10000000
     0.17349674     0.55878974     0.10000000
     0.18460360     0.57027959     0.10000000
     0.19571046     0.58176944     0.10000000
     0.20681731     0.59325929     0.10000000
     0.21792417     0.60474914     0.10000000
     0.22903102     0.61623899     0.10000000
     0.24013788     0.62772884     0.10000000
     0.25124473     0.63921869     0.10000000
     0.26235159     0.65070854     0.10000000
     0.27345845     0.66219839     0.10000000
     0.28456530     0.67368824     0.10000000
     0.29567216     0.68517809     0.10000000
     0.30677901     0.69666794     0.10000000
     0.31788587     0.70815779     0.10000000
     0.32899272     0.71964764     0.10000000
     0.34009958     0.73113750     0.10000000
     0.35120643     0.74262735     0.10000000
     0.36231329     0.75411720     0.10000000
     0.37342015     0.76560705     0.10000000
     0.38452700     0.77709690     0.10000000
     0.39563386     0.78858675     0.10000000
     0.40674071     0.80007660     0.10000000
     0.41784757     0.81156645     0.10000000
     0.42895442     0.82305630     0.10000000
     0.44006128     0.83454615     0.10000000
     0.45116813     0.84603600     0.10000000
     0.46227499     0.85752585     0.10000000
     0.47338185     0.86901570     0.10000000
     0.48448870     0.88050555     0.10000000
     0.49559556     0.89199540     0.10000000
     0.50670241     0.90348525     0.10000000
     0.51780927     0.91497511     0.10000000
     0.52891612     0.92646496     0.10000000
     0.54002298     0.93795481     0.10000000
     0.55112984     0.94944466     0.10000000
     0.56223669     0.96093451     0.10000000
     0.57334355     0.97242436     0.10000000
     0.58445040     0.98391421     0.10000000
     0.59555726     0.99540406     0.10000000
     0.00727691     0.35235542     0.10000000
     0.01838376     0.36384527     0.10000000
     0.02949062     0.37533512     0.10000000
     0.04059747     0.38682497     0.10000000
     0.05170433     0.39831482     0.10000000
     0.06281118     0.40980467     0.10000000
     0.07391804     0.42129452     0.10000000
     0.08502489     0.43278437     0.10000000
     0.09613175     0.44427422     0.10000000
     0.10723861     0.45576408     0.10000000
     0.11834546     0.46725393     0.10000000
     0.12945232     0.47874378     0.10000000
     0.14055917     0.49023363     0.10000000
     0.15166603     0.50172348     0.10000000
     0.16277288     0.51321333     0.10000000
     0.17387974     0.52470318     0.10000000
     0.18498660     0.53619303     0.10000000
     0.19609345     0.54768288     0.10000000
     0.20720031     0.55917273     0.10000000
     0.21830716     0.57066258     0.10000000
     0.22941402     0.58215243     0.10000000
     0.24052087     0.59364228     0.10000000
     0.25162773     0.60513213     0.10000000
     0.26273458     0.61662198     0.10000000
     0.27384144     0.62811183     0.10000000
     0.28494830     0.63960169     0.10000000
     0.29605515     0.65109154     0.10000000
     0.30716201     0.66258139     0.10000000
     0.31826886     0.67407124     0.10000000
     0.32937572     0.68556109     0.10000000
     0.34048257     0.69705094     0.10000000
     0.35158943     0.70854079     0.10000000
     0.36269628     0.72003064     0.10000000
     0.37380314     0.73152049     0.10000000
     0.38491000     0.74301034     0.10000000
     0.39601685     0.75450019     0.10000000
     0.40712371     0.76599004     0.10000000
     0.41823056     0.77747989     0.10000000
     0.42933742     0.78896974     0.10000000
     0.44044427     0.80045959     0.10000000
     0.45155113     0.81194944     0.10000000
     0.46265799     0.82343930     0.10000000
     0.47376484     0.83492915     0.10000000
     0.48487170     0.84641900     0.10000000
     0.49597855     0.85790885     0.10000000
     0.50708541     0.86939870     0.10000000
     0.51819226     0.88088855     0.10000000
     0.52929912     0.89237840     0.10000000
     0.54040597     0.90386825     0.10000000
     0.55151283     0.91535810     0.10000000
     0.56261969     0.92684795     0.10000000
     0.57372654     0.93833780     0.10000000
     0.58483340     0.94982765     0.10000000
     0.59594025     0.96131750     0.10000000
     0.60704711     0.97280735     0.10000000
     0.61815396     0.98429720     0.10000000
     0.62926082     0.99578705     0.10000000
     0.00765990     0.31826886     0.10000000
     0.01876676     0.32975871     0.10000000
     0.02987361     0.34124856     0.10000000
     0.04098047     0.35273841     0.10000000
     0.05208732     0.36422827     0.10000000
     0.06319418     0.37571812     0.10000000
     0.07430103     0.38720797     0.10000000
     0.08540789     0.39869782     0.10000000
     0.09651475     0.41018767     0.10000000
     0.10762160     0.42167752     0.10000000
     0.11872846     0.43316737     0.10000000
     0.12983531     0.44465722     0.10000000
     0.14094217     0.45614707     0.10000000
     0.15204902     0.46763692     0.10000000
     0.16315588     0.47912677     0.10000000
     0.17426273     0.49061662     0.10000000
     0.18536959     0.50210647     0.10000000
     0.19647645     0.51359632     0.10000000
     0.20758330     0.52508617     0.10000000
     0.21869016     0.53657602     0.10000000
     0.22979701     0.54806588     0.10000000
     0.24090387     0.55955573     0.10000000
     0.25201072     0.57104558     0.10000000
     0.26311758     0.58253543     0.10000000
     0.27422444     0.59402528     0.10000000
     0.28533129     0.60551513     0.10000000
     0.29643815     0.61700498     0.10000000
     0.30754500     0.62849483     0.10000000
     0.31865186     0.63998468     0.10000000
     0.32975871     0.65147453     0.10000000
     0.34086557     0.66296438     0.10000000
     0.35197242     0.67445423     0.10000000
     0.36307928     0.68594408     0.10000000
     0.37418614     0.69743393     0.10000000
     0.38529299     0.70892378     0.10000000
     0.39639985     0.72041363     0.10000000
     0.40750670     0.73190349     0.10000000
     0.41861356     0.74339334     0.10000000
     0.42972041     0.75488319     0.10000000
     0.44082727     0.76637304     0.10000000
     0.45193412     0.77786289     0.10000000
     0.46304098     0.78935274     0.10000000
     0.47414784     0.80084259     0.10000000
     0.48525469     0.81233244     0.10000000
     0.49636155     0.82382229     0.10000000
     0.50746840     0.83531214     0.10000000
     0.51857526     0.84680199     0.10000000
     0.52968211     0.85829184     0.10000000
     0.54078897     0.86978169     0.10000000
     0.55189583     0.88127154     0.10000000
     0.56300268     0.89276139     0.10000000
     0.57410954     0.90425124     0.10000000
     0.58521639     0.91574110     0.10000000
     0.59632325     0.92723095     0.10000000
     0.60743010     0.93872080     0.10000000
     0.61853696     0.95021065     0.10000000
     0.62964381     0.96170050     0.10000000
     0.64075067     0.97319035     0.10000000
     0.65185753     0.98468020     0.10000000
     0.66296438     0.99617005     0.10000000
     0.00804290     0.28418231     0.10000000
     0.01914975     0.29567216     0.10000000
     0.03025661     0.30716201     0.10000000
     0.04136346     0.31865186     0.10000000
     0.05247032     0.33014171     0.10000000
     0.06357717     0.34163156     0.10000000
     0.07468403     0.35312141     0.10000000
     0.08579088     0.36461126     0.10000000
     0.09689774     0.37610111     0.10000000
     0.10800460     0.38759096     0.10000000
     0.11911145     0.39908081     0.10000000
     0.13021831     0.41057066     0.10000000
     0.14132516     0.42206051     0.10000000
     0.15243202     0.43355036     0.10000000
     0.16353887     0.44504021     0.10000000
     0.17464573     0.45653007     0.10000000
     0.18575259     0.46801992     0.10000000