Generated by Twist2D
    1.0
      46.73050000      25.55987377       0.00000000
       1.22975000      53.24973702       0.00000000
       0.00000000       0.00000000      30.00000000
    C
    1876
Direct
     0.00213220     0.91897655     0.10000000
     0.02771855     0.94669510     0.10000000
     0.05330490     0.97441365     0.10000000
     0.00426439     0.83795309     0.10000000
     0.02985075     0.86567164     0.10000000
     0.05543710     0.89339019     0.10000000
     0.08102345     0.92110874     0.10000000
     0.10660981     0.94882729     0.10000000
     0.13219616     0.97654584     0.10000000
     0.00639659     0.75692964     0.10000000
     0.03198294     0.78464819     0.10000000
     0.05756930     0.81236674     0.10000000
     0.08315565     0.84008529     0.10000000
     0.10874200     0.86780384     0.10000000
     0.13432836     0.89552239     0.10000000
     0.15991471     0.92324094     0.10000000
     0.18550107     0.95095949     0.10000000
     0.21108742     0.97867804     0.10000000
     0.00852878     0.67590618     0.10000000
     0.03411514     0.70362473     0.10000000
     0.05970149     0.73134328     0.10000000
     0.08528785     0.75906183     0.10000000
     0.11087420     0.78678038     0.10000000
     0.13646055     0.81449893     0.10000000
     0.16204691     0.84221748     0.10000000
     0.18763326     0.86993603     0.10000000
     0.21321962     0.89765458     0.10000000
     0.23880597     0.92537313     0.10000000
     0.26439232     0.95309168     0.10000000
     0.28997868     0.98081023     0.10000000
     0.01066098     0.59488273     0.10000000
     0.03624733     0.62260128     0.10000000
     0.06183369     0.65031983     0.10000000
     0.08742004     0.67803838     0.10000000
     0.11300640     0.70575693     0.10000000
     0.13859275     0.73347548     0.10000000
     0.16417910     0.76119403     0.10000000
     0.18976546     0.78891258     0.10000000
     0.21535181     0.81663113     0.10000000
     0.24093817     0.84434968     0.10000000
     0.26652452     0.87206823     0.10000000
     0.29211087     0.89978678     0.10000000
     0.31769723     0.92750533     0.10000000
     0.34328358     0.95522388     0.10000000
     0.36886994     0.98294243     0.10000000
     0.01279318     0.51385928     0.10000000
     0.03837953     0.54157783     0.10000000
     0.06396588     0.56929638     0.10000000
     0.08955224     0.59701493     0.10000000
     0.11513859     0.62473348     0.10000000
     0.14072495     0.65245203     0.10000000
     0.16631130     0.68017058     0.10000000
     0.19189765     0.70788913     0.10000000
     0.21748401     0.73560768     0.10000000
     0.24307036     0.76332623     0.10000000
     0.26865672     0.79104478     0.10000000
     0.29424307     0.81876333     0.10000000
     0.31982942     0.84648188     0.10000000
     0.34541578     0.87420043     0.10000000
     0.37100213     0.90191898     0.10000000
     0.39658849     0.92963753     0.10000000
     0.42217484     0.95735608     0.10000000
     0.44776119     0.98507463     0.10000000
     0.01492537     0.43283582     0.10000000
     0.04051173     0.46055437     0.10000000
     0.06609808     0.48827292     0.10000000
     0.09168443     0.51599147     0.10000000
     0.11727079     0.54371002     0.10000000
     0.14285714     0.57142857     0.10000000
     0.16844350     0.59914712     0.10000000
     0.19402985     0.62686567     0.10000000
     0.21961620     0.65458422     0.10000000
     0.24520256     0.68230277     0.10000000
     0.27078891     0.71002132     0.10000000
     0.29637527     0.73773987     0.10000000
     0.32196162     0.76545842     0.10000000
     0.34754797     0.79317697     0.10000000
     0.37313433     0.82089552     0.10000000
     0.39872068     0.84861407     0.10000000
     0.42430704     0.87633262     0.10000000
     0.44989339     0.90405117     0.10000000
     0.47547974     0.93176972     0.10000000
     0.50106610     0.95948827     0.10000000
     0.52665245     0.98720682     0.10000000
     0.01705757     0.35181237     0.10000000
     0.04264392     0.37953092     0.10000000
     0.06823028     0.40724947     0.10000000
     0.09381663     0.43496802     0.10000000
     0.11940299     0.46268657     0.10000000
     0.14498934     0.49040512     0.10000000
     0.17057569     0.51812367     0.10000000
     0.19616205     0.54584222     0.10000000
     0.22174840     0.57356077     0.10000000
     0.24733475     0.60127932     0.10000000
     0.27292111     0.62899787     0.10000000
     0.29850746     0.65671642     0.10000000
     0.32409382     0.68443497     0.10000000
     0.34968017     0.71215352     0.10000000
     0.37526652     0.73987207     0.10000000
     0.40085288     0.76759062     0.10000000
     0.42643923     0.79530917     0.10000000
     0.45202559     0.82302772     0.10000000
     0.47761194     0.85074627     0.10000000
     0.50319829     0.87846482     0.10000000
     0.52878465     0.90618337     0.10000000
     0.55437100     0.93390192     0.10000000
     0.57995736     0.96162047     0.10000000
     0.60554371     0.98933902     0.10000000
     0.01918977     0.27078891     0.10000000
     0.04477612     0.29850746     0.10000000
     0.07036247     0.32622601     0.10000000
     0.09594883     0.35394456     0.10000000
     0.12153518     0.38166311     0.10000000
     0.14712154     0.40938166     0.10000000
     0.17270789     0.43710021     0.10000000
     0.19829424     0.46481876     0.10000000
     0.22388060     0.49253731     0.10000000
     0.24946695     0.52025586     0.10000000
     0.27505330     0.54797441     0.10000000
     0.30063966     0.57569296     0.10000000
     0.32622601     0.60341151     0.10000000
     0.35181237     0.63113006     0.10000000
     0.37739872     0.65884861     0.10000000
     0.40298507     0.68656716     0.10000000
     0.42857143     0.71428571     0.10000000
     0.45415778     0.74200426     0.10000000
     0.47974414     0.76972281     0.10000000
     0.50533049     0.79744136     0.10000000
     0.53091684     0.82515991     0.10000000
     0.55650320     0.85287846     0.10000000
     0.58208955     0.88059701     0.10000000
     0.60767591     0.90831557     0.10000000
     0.63326226     0.93603412     0.10000000
     0.65884861     0.96375267     0.10000000
     0.68443497     0.99147122     0.10000000
     0.02132196     0.18976546     0.10000000
     0.04690832     0.21748401     0.10000000
     0.07249467     0.24520256     0.10000000
     0.09808102     0.27292111     0.10000000
     0.12366738     0.30063966     0.10000000
     0.14925373     0.32835821     0.10000000
     0.17484009     0.35607676     0.10000000
     0.20042644     0.38379531     0.10000000
     0.22601279     0.41151386     0.10000000
     0.25159915     0.43923241     0.10000000
     0.27718550     0.46695096     0.10000000
     0.30277186     0.49466951     0.10000000
     0.32835821     0.52238806     0.10000000
     0.35394456     0.55010661     0.10000000
     0.37953092     0.57782516     0.10000000
     0.40511727     0.60554371     0.10000000
     0.43070362     0.63326226     0.10000000
     0.45628998     0.66098081     0.10000000
     0.48187633     0.68869936     0.10000000
     0.50746269     0.71641791     0.10000000
     0.53304904     0.74413646     0.10000000
     0.55863539     0.77185501     0.10000000
     0.58422175     0.79957356     0.10000000
     0.60980810     0.82729211     0.10000000
     0.63539446     0.85501066     0.10000000
     0.66098081     0.88272921     0.10000000
     0.68656716     0.91044776     0.10000000
     0.71215352     0.93816631     0.10000000
     0.73773987     0.96588486     0.10000000
     0.76332623     0.99360341     0.10000000
     0.02345416     0.10874200     0.10000000
     0.04904051     0.13646055     0.10000000
     0.07462687     0.16417910     0.10000000
     0.10021322     0.19189765     0.10000000
     0.12579957     0.21961620     0.10000000
     0.15138593     0.24733475     0.10000000
     0.17697228     0.27505330     0.10000000
     0.20255864     0.30277186     0.10000000
     0.22814499     0.33049041     0.10000000
     0.25373134     0.35820896     0.10000000
     0.27931770     0.38592751     0.10000000
     0.30490405     0.41364606     0.10000000
     0.33049041     0.44136461     0.10000000
     0.35607676     0.46908316     0.10000000
     0.38166311     0.49680171     0.10000000
     0.40724947     0.52452026     0.10000000
     0.43283582     0.55223881     0.10000000
     0.45842217     0.57995736     0.10000000
     0.48400853     0.60767591     0.10000000
     0.50959488     0.63539446     0.10000000
     0.53518124     0.66311301     0.10000000
     0.56076759     0.69083156     0.10000000
     0.58635394     0.71855011     0.10000000
     0.61194030     0.74626866     0.10000000
     0.63752665     0.77398721     0.10000000
     0.66311301     0.80170576     0.10000000
     0.68869936     0.82942431     0.10000000
     0.71428571     0.85714286     0.10000000
     0.73987207     0.88486141     0.10000000
     0.76545842     0.91257996     0.10000000
     0.79104478     0.94029851     0.10000000
     0.81663113     0.96801706     0.10000000
     0.84221748     0.99573561     0.10000000
     0.00000000     0.00000000     0.10000000
     0.02558635     0.02771855     0.10000000
     0.05117271     0.05543710     0.10000000
     0.07675906     0.08315565     0.10000000
     0.10234542     0.11087420     0.10000000
     0.12793177     0.13859275     0.10000000
     0.15351812     0.16631130     0.10000000
     0.17910448     0.19402985     0.10000000
     0.20469083     0.22174840     0.10000000
     0.23027719     0.24946695     0.10000000
     0.25586354     0.27718550     0.10000000
     0.28144989     0.30490405     0.10000000
     0.30703625     0.33262260     0.10000000
     0.33262260     0.36034115     0.10000000
     0.35820896     0.38805970     0.10000000
     0.38379531     0.41577825     0.10000000
     0.40938166     0.44349680     0.10000000
     0.43496802     0.47121535     0.10000000
     0.46055437     0.49893390     0.10000000
     0.48614072     0.52665245     0.10000000
     0.51172708     0.55437100     0.10000000
     0.53731343     0.58208955     0.10000000
     0.56289979     0.60980810     0.10000000
     0.58848614     0.63752665     0.10000000
     0.61407249     0.66524520     0.10000000
     0.63965885     0.69296375     0.10000000
     0.66524520     0.72068230     0.10000000
     0.69083156     0.74840085     0.10000000
     0.71641791     0.77611940     0.10000000
     0.74200426     0.80383795     0.10000000
     0.76759062     0.83155650     0.10000000
     0.79317697     0.85927505     0.10000000
     0.81876333     0.88699360     0.10000000
     0.84434968     0.91471215     0.10000000
     0.86993603     0.94243070     0.10000000
     0.89552239     0.97014925     0.10000000
     0.92110874     0.99786780     0.10000000
     0.07889126     0.00213220     0.10000000
     0.10447761     0.02985075     0.10000000
     0.13006397     0.05756930     0.10000000
     0.15565032     0.08528785     0.10000000
     0.18123667     0.11300640     0.10000000
     0.20682303     0.14072495     0.10000000
     0.23240938     0.16844350     0.10000000
     0.25799574     0.19616205     0.10000000
     0.28358209     0.22388060     0.10000000
     0.30916844     0.25159915     0.10000000
     0.33475480     0.27931770     0.10000000
     0.36034115     0.30703625     0.10000000
     0.38592751     0.33475480     0.10000000
     0.41151386     0.36247335     0.10000000
     0.43710021     0.39019190     0.10000000
     0.46268657     0.41791045     0.10000000
     0.48827292     0.44562900     0.10000000
     0.51385928     0.47334755     0.10000000
     0.53944563     0.50106610     0.10000000
     0.56503198     0.52878465     0.10000000
     0.59061834     0.55650320     0.10000000
     0.61620469     0.58422175     0.10000000
     0.64179104     0.61194030     0.10000000
     0.66737740     0.63965885     0.10000000
     0.69296375     0.66737740     0.10000000
     0.71855011     0.69509595     0.10000000
     0.74413646     0.72281450     0.10000000
     0.76972281     0.75053305     0.10000000
     0.79530917     0.77825160     0.10000000
     0.82089552     0.80597015     0.10000000
     0.84648188     0.83368870     0.10000000
     0.87206823     0.86140725     0.10000000
     0.89765458     0.88912580     0.10000000
     0.92324094     0.91684435     0.10000000
     0.94882729     0.94456290     0.10000000
     0.97441365     0.97228145     0.10000000
     0.15778252     0.00426439     0.10000000
     0.18336887     0.03198294     0.10000000
     0.20895522     0.05970149     0.10000000
     0.23454158     0.08742004     0.10000000
     0.26012793     0.11513859     0.10000000
     0.28571429     0.14285714     0.10000000
     0.31130064     0.17057569     0.10000000
     0.33688699     0.19829424     0.10000000
     0.36247335     0.22601279     0.10000000
     0.38805970     0.25373134     0.10000000
     0.41364606     0.28144989     0.10000000
     0.43923241     0.30916844     0.10000000
     0.46481876     0.33688699     0.10000000
     0.49040512     0.36460554     0.10000000
     0.51599147     0.39232409     0.10000000
     0.54157783     0.42004264     0.10000000
     0.56716418     0.44776119     0.10000000
     0.59275053     0.47547974     0.10000000
     0.61833689     0.50319829     0.10000000
     0.64392324     0.53091684     0.10000000
     0.66950959     0.55863539     0.10000000
     0.69509595     0.58635394     0.10000000
     0.72068230     0.61407249     0.10000000
     0.74626866     0.64179104     0.10000000
     0.77185501     0.66950959     0.10000000
     0.79744136     0.69722814     0.10000000
     0.82302772     0.72494670     0.10000000
     0.84861407     0.75266525     0.10000000
     0.87420043     0.78038380     0.10000000
     0.89978678     0.80810235     0.10000000
     0.92537313     0.83582090     0.10000000
     0.95095949     0.86353945     0.10000000
     0.97654584     0.89125800     0.10000000
     0.23667377     0.00639659     0.10000000
     0.26226013     0.03411514     0.10000000
     0.28784648     0.06183369     0.10000000
     0.31343284     0.08955224     0.10000000
     0.33901919     0.11727079     0.10000000
     0.36460554     0.14498934     0.10000000
     0.39019190     0.17270789     0.10000000
     0.41577825     0.20042644     0.10000000
     0.44136461     0.22814499     0.10000000
     0.46695096     0.25586354     0.10000000
     0.49253731     0.28358209     0.10000000
     0.51812367     0.31130064     0.10000000
     0.54371002     0.33901919     0.10000000
     0.56929638     0.36673774     0.10000000
     0.59488273     0.39445629     0.10000000
     0.62046908     0.42217484     0.10000000
     0.64605544     0.44989339     0.10000000
     0.67164179     0.47761194     0.10000000
     0.69722814     0.50533049     0.10000000
     0.72281450     0.53304904     0.10000000
     0.74840085     0.56076759     0.10000000
     0.77398721     0.58848614     0.10000000
     0.79957356     0.61620469     0.10000000
     0.82515991     0.64392324     0.10000000
     0.85074627     0.67164179     0.10000000
     0.87633262     0.69936034     0.10000000
     0.90191898     0.72707889     0.10000000
     0.92750533     0.75479744     0.10000000
     0.95309168     0.78251599     0.10000000
     0.97867804     0.81023454     0.10000000
     0.31556503     0.00852878     0.10000000
     0.34115139     0.03624733     0.10000000
     0.36673774     0.06396588     0.10000000
     0.39232409     0.09168443     0.10000000
     0.41791045     0.11940299     0.10000000
     0.44349680     0.14712154     0.10000000
     0.46908316     0.17484009     0.10000000
     0.49466951     0.20255864     0.10000000
     0.52025586     0.23027719     0.10000000
     0.54584222     0.25799574     0.10000000
     0.57142857     0.28571429     0.10000000
     0.59701493     0.31343284     0.10000000
     0.62260128     0.34115139     0.10000000
     0.64818763     0.36886994     0.10000000
     0.67377399     0.39658849     0.10000000
     0.69936034     0.42430704     0.10000000
     0.72494670     0.45202559     0.10000000
     0.75053305     0.47974414     0.10000000
     0.77611940     0.50746269     0.10000000
     0.80170576     0.53518124     0.10000000
     0.82729211     0.56289979     0.10000000
     0.85287846     0.59061834     0.10000000
     0.87846482     0.61833689     0.10000000
     0.90405117     0.64605544     0.10000000
     0.92963753     0.67377399     0.10000000
     0.95522388     0.70149254     0.10000000
     0.98081023     0.72921109     0.10000000
     0.39445629     0.01066098     0.10000000
     0.42004264     0.03837953     0.10000000
     0.44562900     0.06609808     0.10000000
     0.47121535     0.09381663     0.10000000
     0.49680171     0.12153518     0.10000000
     0.52238806     0.14925373     0.10000000
     0.54797441     0.17697228     0.10000000
     0.57356077     0.20469083     0.10000000
     0.59914712     0.23240938     0.10000000
     0.62473348     0.26012793     0.10000000
     0.65031983     0.28784648     0.10000000
     0.67590618     0.31556503     0.10000000
     0.70149254     0.34328358     0.10000000
     0.72707889     0.37100213     0.10000000
     0.75266525     0.39872068     0.10000000
     0.77825160     0.42643923     0.10000000
     0.80383795     0.45415778     0.10000000
     0.82942431     0.48187633     0.10000000
     0.85501066     0.50959488     0.10000000
     0.88059701     0.53731343     0.10000000
     0.90618337     0.56503198     0.10000000
     0.93176972     0.59275053     0.10000000
     0.95735608     0.62046908     0.10000000
     0.98294243     0.64818763     0.10000000
     0.47334755     0.01279318     0.10000000
     0.49893390     0.04051173     0.10000000
     0.52452026     0.06823028     0.10000000
     0.55010661     0.09594883     0.10000000
     0.57569296     0.12366738     0.10000000
     0.60127932     0.15138593     0.10000000
     0.62686567     0.17910448     0.10000000
     0.65245203     0.20682303     0.10000000
     0.67803838     0.23454158     0.10000000
     0.70362473     0.26226013     0.10000000
     0.72921109     0.28997868     0.10000000
     0.75479744     0.31769723     0.10000000
     0.78038380     0.34541578     0.10000000
     0.80597015     0.37313433     0.10000000
     0.83155650     0.40085288     0.10000000
     0.85714286     0.42857143     0.10000000
     0.88272921     0.45628998     0.10000000
     0.90831557     0.48400853     0.10000000
     0.93390192     0.51172708     0.10000000
     0.95948827     0.53944563     0.10000000
     0.98507463     0.56716418     0.10000000
     0.55223881     0.01492537     0.10000000
     0.57782516     0.04264392     0.10000000
     0.60341151     0.07036247     0.10000000
     0.62899787     0.09808102     0.10000000
     0.65458422     0.12579957     0.10000000
     0.68017058     0.15351812     0.10000000
     0.70575693     0.18123667     0.10000000
     0.73134328     0.20895522     0.10000000
     0.75692964     0.23667377     0.10000000
     0.78251599     0.26439232     0.10000000
     0.80810235     0.29211087     0.10000000
     0.83368870     0.31982942     0.10000000
     0.85927505     0.34754797     0.10000000
     0.88486141     0.37526652     0.10000000
     0.91044776     0.40298507     0.10000000
     0.93603412     0.43070362     0.10000000
     0.96162047     0.45842217     0.10000000
     0.98720682     0.48614072     0.10000000
     0.63113006     0.01705757     0.10000000
     0.65671642     0.04477612     0.10000000
     0.68230277     0.07249467     0.10000000
     0.70788913     0.10021322     0.10000000
     0.73347548     0.12793177     0.10000000
     0.75906183     0.15565032     0.10000000
     0.78464819     0.18336887     0.10000000
     0.81023454     0.21108742     0.10000000
     0.83582090     0.23880597     0.10000000
     0.86140725     0.26652452     0.10000000
     0.88699360     0.29424307     0.10000000
     0.91257996     0.32196162     0.10000000
     0.93816631     0.34968017     0.10000000
     0.96375267     0.37739872     0.10000000
     0.98933902     0.40511727     0.10000000
     0.71002132     0.01918977     0.10000000
     0.73560768     0.04690832     0.10000000
     0.76119403     0.07462687     0.10000000
     0.78678038     0.10234542     0.10000000
     0.81236674     0.13006397     0.10000000
     0.83795309     0.15778252     0.10000000
     0.86353945     0.18550107     0.10000000
     0.88912580     0.21321962     0.10000000
     0.91471215     0.24093817     0.10000000
     0.94029851     0.26865672     0.10000000
     0.96588486     0.29637527     0.10000000
     0.99147122     0.32409382     0.10000000
     0.78891258     0.02132196     0.10000000
     0.81449893     0.04904051     0.10000000
     0.84008529     0.07675906     0.10000000
     0.86567164     0.10447761     0.10000000
     0.89125800     0.13219616     0.10000000
     0.91684435     0.15991471     0.10000000
     0.94243070     0.18763326     0.10000000
     0.96801706     0.21535181     0.10000000
     0.99360341     0.24307036     0.10000000
     0.86780384     0.02345416     0.10000000
     0.89339019     0.05117271     0.10000000
     0.91897655     0.07889126     0.10000000
     0.94456290     0.10660981     0.10000000
     0.97014925     0.13432836     0.10000000
     0.99573561     0.16204691     0.10000000
     0.94669510     0.02558635     0.10000000
     0.97228145     0.05330490     0.10000000
     0.99786780     0.08102345     0.10000000
     0.05472637     0.92039801     0.10000000
     0.08031272     0.94811656     0.10000000
     0.10589908     0.97583511     0.10000000
     0.05685856     0.83937455     0.10000000
     0.08244492     0.86709310     0.10000000
     0.10803127     0.89481165     0.10000000
     0.13361763     0.92253020     0.10000000
     0.15920398     0.95024875     0.10000000
     0.18479033     0.97796730     0.10000000
     0.05899076     0.75835110     0.10000000
     0.08457711     0.78606965     0.10000000
     0.11016347     0.81378820     0.10000000
     0.13574982     0.84150675     0.10000000
     0.16133618     0.86922530     0.10000000
     0.18692253     0.89694385     0.10000000
     0.21250888     0.92466240     0.10000000
     0.23809524     0.95238095     0.10000000
     0.26368159     0.98009950     0.10000000
     0.06112296     0.67732765     0.10000000
     0.08670931     0.70504620     0.10000000
     0.11229566     0.73276475     0.10000000
     0.13788202     0.76048330     0.10000000
     0.16346837     0.78820185     0.10000000
     0.18905473     0.81592040     0.10000000
     0.21464108     0.84363895     0.10000000
     0.24022743     0.87135750     0.10000000
     0.26581379     0.89907605     0.10000000
     0.29140014     0.92679460     0.10000000
     0.31698650     0.95451315     0.10000000
     0.34257285     0.98223170     0.10000000
     0.06325515     0.59630419     0.10000000
     0.08884151     0.62402274     0.10000000
     0.11442786     0.65174129     0.10000000
     0.14001421     0.67945984     0.10000000
     0.16560057     0.70717839     0.10000000
     0.19118692     0.73489694     0.10000000
     0.21677328     0.76261549     0.10000000
     0.24235963     0.79033404     0.10000000
     0.26794598     0.81805259     0.10000000
     0.29353234     0.84577114     0.10000000
     0.31911869     0.87348969     0.10000000
     0.34470505     0.90120824     0.10000000
     0.37029140     0.92892679     0.10000000
     0.39587775     0.95664534     0.10000000
     0.42146411     0.98436389     0.10000000
     0.06538735     0.51528074     0.10000000
     0.09097370     0.54299929     0.10000000
     0.11656006     0.57071784     0.10000000
     0.14214641     0.59843639     0.10000000
     0.16773276     0.62615494     0.10000000
     0.19331912     0.65387349     0.10000000
     0.21890547     0.68159204     0.10000000
     0.24449183     0.70931059     0.10000000
     0.27007818     0.73702914     0.10000000
     0.29566453     0.76474769     0.10000000
     0.32125089     0.79246624     0.10000000
     0.34683724     0.82018479     0.10000000
     0.37242360     0.84790334     0.10000000
     0.39800995     0.87562189     0.10000000
     0.42359630     0.90334044     0.10000000
     0.44918266     0.93105899     0.10000000
     0.47476901     0.95877754     0.10000000
     0.50035537     0.98649609     0.10000000
     0.06751955     0.43425728     0.10000000
     0.09310590     0.46197583     0.10000000
     0.11869225     0.48969438     0.10000000
     0.14427861     0.51741293     0.10000000
     0.16986496     0.54513148     0.10000000
     0.19545131     0.57285003     0.10000000
     0.22103767     0.60056858     0.10000000
     0.24662402     0.62828713     0.10000000
     0.27221038     0.65600568     0.10000000
     0.29779673     0.68372423     0.10000000
     0.32338308     0.71144278     0.10000000
     0.34896944     0.73916133     0.10000000
     0.37455579     0.76687988     0.10000000
     0.40014215     0.79459843     0.10000000
     0.42572850     0.82231698     0.10000000
     0.45131485     0.85003553     0.10000000
     0.47690121     0.87775409     0.10000000
     0.50248756     0.90547264     0.10000000
     0.52807392     0.93319119     0.10000000
     0.55366027     0.96090974     0.10000000
     0.57924662     0.98862829     0.10000000
     0.06965174     0.35323383     0.10000000
     0.09523810     0.38095238     0.10000000
     0.12082445     0.40867093     0.10000000
     0.14641080     0.43638948     0.10000000
     0.17199716     0.46410803     0.10000000
     0.19758351     0.49182658     0.10000000
     0.22316987     0.51954513     0.10000000
     0.24875622     0.54726368     0.10000000
     0.27434257     0.57498223     0.10000000
     0.29992893     0.60270078     0.10000000
     0.32551528     0.63041933     0.10000000
     0.35110163     0.65813788     0.10000000
     0.37668799     0.68585643     0.10000000
     0.40227434     0.71357498     0.10000000
     0.42786070     0.74129353     0.10000000
     0.45344705     0.76901208     0.10000000
     0.47903340     0.79673063     0.10000000
     0.50461976     0.82444918     0.10000000
     0.53020611     0.85216773     0.10000000
     0.55579247     0.87988628     0.10000000
     0.58137882     0.90760483     0.10000000
     0.60696517     0.93532338     0.10000000
     0.63255153     0.96304193     0.10000000
     0.65813788     0.99076048     0.10000000
     0.07178394     0.27221038     0.10000000
     0.09737029     0.29992893     0.10000000
     0.12295665     0.32764748     0.10000000
     0.14854300     0.35536603     0.10000000
     0.17412935     0.38308458     0.10000000
     0.19971571     0.41080313     0.10000000
     0.22530206     0.43852168     0.10000000
     0.25088842     0.46624023     0.10000000
     0.27647477     0.49395878     0.10000000
     0.30206112     0.52167733     0.10000000
     0.32764748     0.54939588     0.10000000
     0.35323383     0.57711443     0.10000000
     0.37882018     0.60483298     0.10000000
     0.40440654     0.63255153     0.10000000
     0.42999289     0.66027008     0.10000000
     0.45557925     0.68798863     0.10000000
     0.48116560     0.71570718     0.10000000
     0.50675195     0.74342573     0.10000000
     0.53233831     0.77114428     0.10000000
     0.55792466     0.79886283     0.10000000
     0.58351102     0.82658138     0.10000000
     0.60909737     0.85429993     0.10000000
     0.63468372     0.88201848     0.10000000
     0.66027008     0.90973703     0.10000000
     0.68585643     0.93745558     0.10000000
     0.71144279     0.96517413     0.10000000
     0.73702914     0.99289268     0.10000000
     0.07391613     0.19118692     0.10000000
     0.09950249     0.21890547     0.10000000
     0.12508884     0.24662402     0.10000000
     0.15067520     0.27434257     0.10000000
     0.17626155     0.30206112     0.10000000
     0.20184790     0.32977967     0.10000000
     0.22743426     0.35749822     0.10000000
     0.25302061     0.38521677     0.10000000
     0.27860697     0.41293532     0.10000000
     0.30419332     0.44065387     0.10000000
     0.32977967     0.46837242     0.10000000
     0.35536603     0.49609097     0.10000000
     0.38095238     0.52380952     0.10000000
     0.40653873     0.55152807     0.10000000
     0.43212509     0.57924662     0.10000000
     0.45771144     0.60696517     0.10000000
     0.48329780     0.63468372     0.10000000
     0.50888415     0.66240227     0.10000000
     0.53447050     0.69012082     0.10000000
     0.56005686     0.71783937     0.10000000
     0.58564321     0.74555792     0.10000000
     0.61122957     0.77327647     0.10000000
     0.63681592     0.80099502     0.10000000
     0.66240227     0.82871357     0.10000000
     0.68798863     0.85643212     0.10000000
     0.71357498     0.88415067     0.10000000
     0.73916134     0.91186922     0.10000000
     0.76474769     0.93958777     0.10000000
     0.79033404     0.96730632     0.10000000
     0.81592040     0.99502487     0.10000000
     0.07604833     0.11016347     0.10000000
     0.10163468     0.13788202     0.10000000
     0.12722104     0.16560057     0.10000000
     0.15280739     0.19331912     0.10000000
     0.17839375     0.22103767     0.10000000
     0.20398010     0.24875622     0.10000000
     0.22956645     0.27647477     0.10000000
     0.25515281     0.30419332     0.10000000
     0.28073916     0.33191187     0.10000000
     0.30632552     0.35963042     0.10000000
     0.33191187     0.38734897     0.10000000
     0.35749822     0.41506752     0.10000000
     0.38308458     0.44278607     0.10000000