Generated by Twist2D
1.0
       61.4874981195        34.0798306477         0.0000000000
      -14.5432289385        26.2391785702         0.0000000000
       30.7437526050        17.0399172889        60.8819363729
    C
 3268
Direct
     0.001223990         0.100000000         0.938800490
     0.020807830         0.100000000         0.959608320
     0.040391680         0.100000000         0.980416160
     0.002447980         0.100000000         0.877600980
     0.022031820         0.100000000         0.898408810
     0.041615670         0.100000000         0.919216650
     0.061199510         0.100000000         0.940024480
     0.080783350         0.100000000         0.960832310
     0.100367200         0.100000000         0.981640150
     0.003671970         0.100000000         0.816401470
     0.023255810         0.100000000         0.837209300
     0.042839660         0.100000000         0.858017140
     0.062423500         0.100000000         0.878824970
     0.082007340         0.100000000         0.899632800
     0.101591190         0.100000000         0.920440640
     0.121175030         0.100000000         0.941248470
     0.140758870         0.100000000         0.962056300
     0.160342720         0.100000000         0.982864140
     0.004895960         0.100000000         0.755201960
     0.024479800         0.100000000         0.776009790
     0.044063650         0.100000000         0.796817630
     0.063647490         0.100000000         0.817625460
     0.083231330         0.100000000         0.838433290
     0.102815180         0.100000000         0.859241130
     0.122399020         0.100000000         0.880048960
     0.141982860         0.100000000         0.900856790
     0.161566710         0.100000000         0.921664630
     0.181150550         0.100000000         0.942472460
     0.200734390         0.100000000         0.963280290
     0.220318240         0.100000000         0.984088130
     0.006119950         0.100000000         0.694002450
     0.025703790         0.100000000         0.714810280
     0.045287640         0.100000000         0.735618120
     0.064871480         0.100000000         0.756425950
     0.084455320         0.100000000         0.777233780
     0.104039170         0.100000000         0.798041620
     0.123623010         0.100000000         0.818849450
     0.143206850         0.100000000         0.839657280
     0.162790700         0.100000000         0.860465120
     0.182374540         0.100000000         0.881272950
     0.201958380         0.100000000         0.902080780
     0.221542230         0.100000000         0.922888620
     0.241126070         0.100000000         0.943696450
     0.260709910         0.100000000         0.964504280
     0.280293760         0.100000000         0.985312120
     0.007343940         0.100000000         0.632802940
     0.026927780         0.100000000         0.653610770
     0.046511630         0.100000000         0.674418600
     0.066095470         0.100000000         0.695226440
     0.085679310         0.100000000         0.716034270
     0.105263160         0.100000000         0.736842110
     0.124847000         0.100000000         0.757649940
     0.144430840         0.100000000         0.778457770
     0.164014690         0.100000000         0.799265610
     0.183598530         0.100000000         0.820073440
     0.203182370         0.100000000         0.840881270
     0.222766220         0.100000000         0.861689110
     0.242350060         0.100000000         0.882496940
     0.261933900         0.100000000         0.903304770
     0.281517750         0.100000000         0.924112610
     0.301101590         0.100000000         0.944920440
     0.320685430         0.100000000         0.965728270
     0.340269280         0.100000000         0.986536110
     0.008567930         0.100000000         0.571603430
     0.028151770         0.100000000         0.592411260
     0.047735620         0.100000000         0.613219090
     0.067319460         0.100000000         0.634026930
     0.086903300         0.100000000         0.654834760
     0.106487150         0.100000000         0.675642590
     0.126070990         0.100000000         0.696450430
     0.145654830         0.100000000         0.717258260
     0.165238680         0.100000000         0.738066100
     0.184822520         0.100000000         0.758873930
     0.204406360         0.100000000         0.779681760
     0.223990210         0.100000000         0.800489600
     0.243574050         0.100000000         0.821297430
     0.263157890         0.100000000         0.842105260
     0.282741740         0.100000000         0.862913100
     0.302325580         0.100000000         0.883720930
     0.321909420         0.100000000         0.904528760
     0.341493270         0.100000000         0.925336600
     0.361077110         0.100000000         0.946144430
     0.380660950         0.100000000         0.966952260
     0.400244800         0.100000000         0.987760100
     0.009791920         0.100000000         0.510403920
     0.029375760         0.100000000         0.531211750
     0.048959610         0.100000000         0.552019580
     0.068543450         0.100000000         0.572827420
     0.088127290         0.100000000         0.593635250
     0.107711140         0.100000000         0.614443080
     0.127294980         0.100000000         0.635250920
     0.146878820         0.100000000         0.656058750
     0.166462670         0.100000000         0.676866590
     0.186046510         0.100000000         0.697674420
     0.205630350         0.100000000         0.718482250
     0.225214200         0.100000000         0.739290090
     0.244798040         0.100000000         0.760097920
     0.264381880         0.100000000         0.780905750
     0.283965730         0.100000000         0.801713590
     0.303549570         0.100000000         0.822521420
     0.323133410         0.100000000         0.843329250
     0.342717260         0.100000000         0.864137090
     0.362301100         0.100000000         0.884944920
     0.381884940         0.100000000         0.905752750
     0.401468790         0.100000000         0.926560590
     0.421052630         0.100000000         0.947368420
     0.440636470         0.100000000         0.968176250
     0.460220320         0.100000000         0.988984090
     0.011015910         0.100000000         0.449204410
     0.030599760         0.100000000         0.470012240
     0.050183600         0.100000000         0.490820070
     0.069767440         0.100000000         0.511627910
     0.089351290         0.100000000         0.532435740
     0.108935130         0.100000000         0.553243570
     0.128518970         0.100000000         0.574051410
     0.148102820         0.100000000         0.594859240
     0.167686660         0.100000000         0.615667070
     0.187270500         0.100000000         0.636474910
     0.206854350         0.100000000         0.657282740
     0.226438190         0.100000000         0.678090580
     0.246022030         0.100000000         0.698898410
     0.265605880         0.100000000         0.719706240
     0.285189720         0.100000000         0.740514080
     0.304773560         0.100000000         0.761321910
     0.324357410         0.100000000         0.782129740
     0.343941250         0.100000000         0.802937580
     0.363525090         0.100000000         0.823745410
     0.383108940         0.100000000         0.844553240
     0.402692780         0.100000000         0.865361080
     0.422276620         0.100000000         0.886168910
     0.441860470         0.100000000         0.906976740
     0.461444310         0.100000000         0.927784580
     0.481028150         0.100000000         0.948592410
     0.500612000         0.100000000         0.969400240
     0.520195840         0.100000000         0.990208080
     0.012239900         0.100000000         0.388004900
     0.031823750         0.100000000         0.408812730
     0.051407590         0.100000000         0.429620560
     0.070991430         0.100000000         0.450428400
     0.090575280         0.100000000         0.471236230
     0.110159120         0.100000000         0.492044060
     0.129742960         0.100000000         0.512851900
     0.149326810         0.100000000         0.533659730
     0.168910650         0.100000000         0.554467560
     0.188494490         0.100000000         0.575275400
     0.208078340         0.100000000         0.596083230
     0.227662180         0.100000000         0.616891060
     0.247246020         0.100000000         0.637698900
     0.266829870         0.100000000         0.658506730
     0.286413710         0.100000000         0.679314570
     0.305997550         0.100000000         0.700122400
     0.325581400         0.100000000         0.720930230
     0.345165240         0.100000000         0.741738070
     0.364749080         0.100000000         0.762545900
     0.384332930         0.100000000         0.783353730
     0.403916770         0.100000000         0.804161570
     0.423500610         0.100000000         0.824969400
     0.443084460         0.100000000         0.845777230
     0.462668300         0.100000000         0.866585070
     0.482252140         0.100000000         0.887392900
     0.501835990         0.100000000         0.908200730
     0.521419830         0.100000000         0.929008570
     0.541003670         0.100000000         0.949816400
     0.560587520         0.100000000         0.970624240
     0.580171360         0.100000000         0.991432070
     0.013463890         0.100000000         0.326805390
     0.033047740         0.100000000         0.347613220
     0.052631580         0.100000000         0.368421050
     0.072215420         0.100000000         0.389228890
     0.091799270         0.100000000         0.410036720
     0.111383110         0.100000000         0.430844550
     0.130966950         0.100000000         0.451652390
     0.150550800         0.100000000         0.472460220
     0.170134640         0.100000000         0.493268050
     0.189718480         0.100000000         0.514075890
     0.209302330         0.100000000         0.534883720
     0.228886170         0.100000000         0.555691550
     0.248470010         0.100000000         0.576499390
     0.268053860         0.100000000         0.597307220
     0.287637700         0.100000000         0.618115060
     0.307221540         0.100000000         0.638922890
     0.326805390         0.100000000         0.659730720
     0.346389230         0.100000000         0.680538560
     0.365973070         0.100000000         0.701346390
     0.385556920         0.100000000         0.722154220
     0.405140760         0.100000000         0.742962060
     0.424724600         0.100000000         0.763769890
     0.444308450         0.100000000         0.784577720
     0.463892290         0.100000000         0.805385560
     0.483476130         0.100000000         0.826193390
     0.503059980         0.100000000         0.847001220
     0.522643820         0.100000000         0.867809060
     0.542227660         0.100000000         0.888616890
     0.561811510         0.100000000         0.909424720
     0.581395350         0.100000000         0.930232560
     0.600979190         0.100000000         0.951040390
     0.620563040         0.100000000         0.971848230
     0.640146880         0.100000000         0.992656060
     0.014687880         0.100000000         0.265605880
     0.034271730         0.100000000         0.286413710
     0.053855570         0.100000000         0.307221540
     0.073439410         0.100000000         0.328029380
     0.093023260         0.100000000         0.348837210
     0.112607100         0.100000000         0.369645040
     0.132190940         0.100000000         0.390452880
     0.151774790         0.100000000         0.411260710
     0.171358630         0.100000000         0.432068540
     0.190942470         0.100000000         0.452876380
     0.210526320         0.100000000         0.473684210
     0.230110160         0.100000000         0.494492040
     0.249694000         0.100000000         0.515299880
     0.269277850         0.100000000         0.536107710
     0.288861690         0.100000000         0.556915540
     0.308445530         0.100000000         0.577723380
     0.328029380         0.100000000         0.598531210
     0.347613220         0.100000000         0.619339050
     0.367197060         0.100000000         0.640146880
     0.386780910         0.100000000         0.660954710
     0.406364750         0.100000000         0.681762550
     0.425948590         0.100000000         0.702570380
     0.445532440         0.100000000         0.723378210
     0.465116280         0.100000000         0.744186050
     0.484700120         0.100000000         0.764993880
     0.504283970         0.100000000         0.785801710
     0.523867810         0.100000000         0.806609550
     0.543451650         0.100000000         0.827417380
     0.563035500         0.100000000         0.848225210
     0.582619340         0.100000000         0.869033050
     0.602203180         0.100000000         0.889840880
     0.621787030         0.100000000         0.910648710
     0.641370870         0.100000000         0.931456550
     0.660954710         0.100000000         0.952264380
     0.680538560         0.100000000         0.973072220
     0.700122400         0.100000000         0.993880050
     0.015911870         0.100000000         0.204406360
     0.035495720         0.100000000         0.225214200
     0.055079560         0.100000000         0.246022030
     0.074663400         0.100000000         0.266829870
     0.094247250         0.100000000         0.287637700
     0.113831090         0.100000000         0.308445530
     0.133414930         0.100000000         0.329253370
     0.152998780         0.100000000         0.350061200
     0.172582620         0.100000000         0.370869030
     0.192166460         0.100000000         0.391676870
     0.211750310         0.100000000         0.412484700
     0.231334150         0.100000000         0.433292530
     0.250917990         0.100000000         0.454100370
     0.270501840         0.100000000         0.474908200
     0.290085680         0.100000000         0.495716030
     0.309669520         0.100000000         0.516523870
     0.329253370         0.100000000         0.537331700
     0.348837210         0.100000000         0.558139530
     0.368421050         0.100000000         0.578947370
     0.388004900         0.100000000         0.599755200
     0.407588740         0.100000000         0.620563040
     0.427172580         0.100000000         0.641370870
     0.446756430         0.100000000         0.662178700
     0.466340270         0.100000000         0.682986540
     0.485924110         0.100000000         0.703794370
     0.505507960         0.100000000         0.724602200
     0.525091800         0.100000000         0.745410040
     0.544675640         0.100000000         0.766217870
     0.564259490         0.100000000         0.787025700
     0.583843330         0.100000000         0.807833540
     0.603427170         0.100000000         0.828641370
     0.623011020         0.100000000         0.849449200
     0.642594860         0.100000000         0.870257040
     0.662178700         0.100000000         0.891064870
     0.681762550         0.100000000         0.911872710
     0.701346390         0.100000000         0.932680540
     0.720930230         0.100000000         0.953488370
     0.740514080         0.100000000         0.974296210
     0.760097920         0.100000000         0.995104040
     0.017135860         0.100000000         0.143206850
     0.036719710         0.100000000         0.164014690
     0.056303550         0.100000000         0.184822520
     0.075887390         0.100000000         0.205630350
     0.095471240         0.100000000         0.226438190
     0.115055080         0.100000000         0.247246020
     0.134638920         0.100000000         0.268053860
     0.154222770         0.100000000         0.288861690
     0.173806610         0.100000000         0.309669520
     0.193390450         0.100000000         0.330477360
     0.212974300         0.100000000         0.351285190
     0.232558140         0.100000000         0.372093020
     0.252141980         0.100000000         0.392900860
     0.271725830         0.100000000         0.413708690
     0.291309670         0.100000000         0.434516520
     0.310893510         0.100000000         0.455324360
     0.330477360         0.100000000         0.476132190
     0.350061200         0.100000000         0.496940020
     0.369645040         0.100000000         0.517747860
     0.389228890         0.100000000         0.538555690
     0.408812730         0.100000000         0.559363530
     0.428396570         0.100000000         0.580171360
     0.447980420         0.100000000         0.600979190
     0.467564260         0.100000000         0.621787030
     0.487148100         0.100000000         0.642594860
     0.506731950         0.100000000         0.663402690
     0.526315790         0.100000000         0.684210530
     0.545899630         0.100000000         0.705018360
     0.565483480         0.100000000         0.725826190
     0.585067320         0.100000000         0.746634030
     0.604651160         0.100000000         0.767441860
     0.624235010         0.100000000         0.788249690
     0.643818850         0.100000000         0.809057530
     0.663402690         0.100000000         0.829865360
     0.682986540         0.100000000         0.850673190
     0.702570380         0.100000000         0.871481030
     0.722154220         0.100000000         0.892288860
     0.741738070         0.100000000         0.913096700
     0.761321910         0.100000000         0.933904530
     0.780905750         0.100000000         0.954712360
     0.800489600         0.100000000         0.975520200
     0.820073440         0.100000000         0.996328030
     0.018359850         0.100000000         0.082007340
     0.037943700         0.100000000         0.102815180
     0.057527540         0.100000000         0.123623010
     0.077111380         0.100000000         0.144430840
     0.096695230         0.100000000         0.165238680
     0.116279070         0.100000000         0.186046510
     0.135862910         0.100000000         0.206854350
     0.155446760         0.100000000         0.227662180
     0.175030600         0.100000000         0.248470010
     0.194614440         0.100000000         0.269277850
     0.214198290         0.100000000         0.290085680
     0.233782130         0.100000000         0.310893510
     0.253365970         0.100000000         0.331701350
     0.272949820         0.100000000         0.352509180
     0.292533660         0.100000000         0.373317010
     0.312117500         0.100000000         0.394124850
     0.331701350         0.100000000         0.414932680
     0.351285190         0.100000000         0.435740510
     0.370869030         0.100000000         0.456548350
     0.390452880         0.100000000         0.477356180
     0.410036720         0.100000000         0.498164010
     0.429620560         0.100000000         0.518971850
     0.449204410         0.100000000         0.539779680
     0.468788250         0.100000000         0.560587520
     0.488372090         0.100000000         0.581395350
     0.507955940         0.100000000         0.602203180
     0.527539780         0.100000000         0.623011020
     0.547123620         0.100000000         0.643818850
     0.566707470         0.100000000         0.664626680
     0.586291310         0.100000000         0.685434520
     0.605875150         0.100000000         0.706242350
     0.625459000         0.100000000         0.727050180
     0.645042840         0.100000000         0.747858020
     0.664626680         0.100000000         0.768665850
     0.684210530         0.100000000         0.789473680
     0.703794370         0.100000000         0.810281520
     0.723378210         0.100000000         0.831089350
     0.742962060         0.100000000         0.851897180
     0.762545900         0.100000000         0.872705020
     0.782129740         0.100000000         0.893512850
     0.801713590         0.100000000         0.914320690
     0.821297430         0.100000000         0.935128520
     0.840881270         0.100000000         0.955936350
     0.860465120         0.100000000         0.976744190
     0.880048960         0.100000000         0.997552020
     0.000000000         0.100000000         0.000000000
     0.019583840         0.100000000         0.020807830
     0.039167690         0.100000000         0.041615670
     0.058751530         0.100000000         0.062423500
     0.078335370         0.100000000         0.083231330
     0.097919220         0.100000000         0.104039170
     0.117503060         0.100000000         0.124847000
     0.137086900         0.100000000         0.145654830
     0.156670750         0.100000000         0.166462670
     0.176254590         0.100000000         0.187270500
     0.195838430         0.100000000         0.208078340
     0.215422280         0.100000000         0.228886170
     0.235006120         0.100000000         0.249694000
     0.254589960         0.100000000         0.270501840
     0.274173810         0.100000000         0.291309670
     0.293757650         0.100000000         0.312117500
     0.313341490         0.100000000         0.332925340
     0.332925340         0.100000000         0.353733170
     0.352509180         0.100000000         0.374541000
     0.372093020         0.100000000         0.395348840
     0.391676870         0.100000000         0.416156670
     0.411260710         0.100000000         0.436964500
     0.430844550         0.100000000         0.457772340
     0.450428400         0.100000000         0.478580170
     0.470012240         0.100000000         0.499388000
     0.489596080         0.100000000         0.520195840
     0.509179930         0.100000000         0.541003670
     0.528763770         0.100000000         0.561811510
     0.548347610         0.100000000         0.582619340
     0.567931460         0.100000000         0.603427170
     0.587515300         0.100000000         0.624235010
     0.607099140         0.100000000         0.645042840
     0.626682990         0.100000000         0.665850670
     0.646266830         0.100000000         0.686658510
     0.665850670         0.100000000         0.707466340
     0.685434520         0.100000000         0.728274170
     0.705018360         0.100000000         0.749082010
     0.724602200         0.100000000         0.769889840
     0.744186050         0.100000000         0.790697670
     0.763769890         0.100000000         0.811505510
     0.783353730         0.100000000         0.832313340
     0.802937580         0.100000000         0.853121180
     0.822521420         0.100000000         0.873929010
     0.842105260         0.100000000         0.894736840
     0.861689110         0.100000000         0.915544680
     0.881272950         0.100000000         0.936352510
     0.900856790         0.100000000         0.957160340
     0.920440640         0.100000000         0.977968180
     0.940024480         0.100000000         0.998776010
     0.059975520         0.100000000         0.001223990
     0.079559360         0.100000000         0.022031820
     0.099143210         0.100000000         0.042839660
     0.118727050         0.100000000         0.063647490
     0.138310890         0.100000000         0.084455320
     0.157894740         0.100000000         0.105263160
     0.177478580         0.100000000         0.126070990
     0.197062420         0.100000000         0.146878820
     0.216646270         0.100000000         0.167686660
     0.236230110         0.100000000         0.188494490
     0.255813950         0.100000000         0.209302330
     0.275397800         0.100000000         0.230110160
     0.294981640         0.100000000         0.250917990
     0.314565480         0.100000000         0.271725830
     0.334149330         0.100000000         0.292533660
     0.353733170         0.100000000         0.313341490
     0.373317010         0.100000000         0.334149330
     0.392900860         0.100000000         0.354957160
     0.412484700         0.100000000         0.375764990
     0.432068540         0.100000000         0.396572830
     0.451652390         0.100000000         0.417380660
     0.471236230         0.100000000         0.438188490
     0.490820070         0.100000000         0.458996330
     0.510403920         0.100000000         0.479804160
     0.529987760         0.100000000         0.500612000
     0.549571600         0.100000000         0.521419830
     0.569155450         0.100000000         0.542227660
     0.588739290         0.100000000         0.563035500
     0.608323130         0.100000000         0.583843330
     0.627906980         0.100000000         0.604651160
     0.647490820         0.100000000         0.625459000
     0.667074660         0.100000000         0.646266830
     0.686658510         0.100000000         0.667074660
     0.706242350         0.100000000         0.687882500
     0.725826190         0.100000000         0.708690330
     0.745410040         0.100000000         0.729498160
     0.764993880         0.100000000         0.750306000
     0.784577720         0.100000000         0.771113830
     0.804161570         0.100000000         0.791921660
     0.823745410         0.100000000         0.812729500
     0.843329250         0.100000000         0.833537330
     0.862913100         0.100000000         0.854345170
     0.882496940         0.100000000         0.875153000
     0.902080780         0.100000000         0.895960830
     0.921664630         0.100000000         0.916768670
     0.941248470         0.100000000         0.937576500
     0.960832310         0.100000000         0.958384330
     0.980416160         0.100000000         0.979192170
     0.119951040         0.100000000         0.002447980
     0.139534880         0.100000000         0.023255810
     0.159118730         0.100000000         0.044063650
     0.178702570         0.100000000         0.064871480
     0.198286410         0.100000000         0.085679310
     0.217870260         0.100000000         0.106487150
     0.237454100         0.100000000         0.127294980
     0.257037940         0.100000000         0.148102820
     0.276621790         0.100000000         0.168910650
     0.296205630         0.100000000         0.189718480
     0.315789470         0.100000000         0.210526320
     0.335373320         0.100000000         0.231334150
     0.354957160         0.100000000         0.252141980
     0.374541000         0.100000000         0.272949820
     0.394124850         0.100000000         0.293757650
     0.413708690         0.100000000         0.314565480
     0.433292530         0.100000000         0.335373320
     0.452876380         0.100000000         0.356181150
     0.472460220         0.100000000         0.376988980
     0.492044060         0.100000000         0.397796820
     0.511627910         0.100000000         0.418604650
     0.531211750         0.100000000         0.439412480
     0.550795590         0.100000000         0.460220320
     0.570379440         0.100000000         0.481028150
     0.589963280         0.100000000         0.501835990
     0.609547120         0.100000000         0.522643820
     0.629130970         0.100000000         0.543451650
     0.648714810         0.100000000         0.564259490
     0.668298650         0.100000000         0.585067320
     0.687882500         0.100000000         0.605875150
     0.707466340         0.100000000         0.626682990
     0.727050180         0.100000000         0.647490820
     0.746634030         0.100000000         0.668298650
     0.766217870         0.100000000         0.689106490
     0.785801710         0.100000000         0.709914320
     0.805385560         0.100000000         0.730722150
     0.824969400         0.100000000         0.751529990
     0.844553240         0.100000000         0.772337820
     0.864137090         0.100000000         0.793145650
     0.883720930         0.100000000         0.813953490
     0.903304770         0.100000000         0.834761320
     0.922888620         0.100000000         0.855569160
     0.942472460         0.100000000         0.876376990
     0.962056300         0.100000000         0.897184820
     0.981640150         0.100000000         0.917992660
     0.179926560         0.100000000         0.003671970
     0.199510400         0.100000000         0.024479800
     0.219094250         0.100000000         0.045287640
     0.238678090         0.100000000         0.066095470
     0.258261930         0.100000000         0.086903300
     0.277845780         0.100000000         0.107711140
     0.297429620         0.100000000         0.128518970
     0.317013460         0.100000000         0.149326810
     0.336597310         0.100000000         0.170134640
     0.356181150         0.100000000         0.190942470
     0.375764990         0.100000000         0.211750310