Generated by Twist2D
    1.0
      61.48750000      34.07983169       0.00000000
       1.22975000      70.28965286       0.00000000
       0.00000000       0.00000000      30.00000000
    C
    3268
Direct
     0.00122399     0.93880049     0.10000000
     0.02080783     0.95960832     0.10000000
     0.04039168     0.98041616     0.10000000
     0.00244798     0.87760098     0.10000000
     0.02203182     0.89840881     0.10000000
     0.04161567     0.91921665     0.10000000
     0.06119951     0.94002448     0.10000000
     0.08078335     0.96083231     0.10000000
     0.10036720     0.98164015     0.10000000
     0.00367197     0.81640147     0.10000000
     0.02325581     0.83720930     0.10000000
     0.04283966     0.85801714     0.10000000
     0.06242350     0.87882497     0.10000000
     0.08200734     0.89963280     0.10000000
     0.10159119     0.92044064     0.10000000
     0.12117503     0.94124847     0.10000000
     0.14075887     0.96205630     0.10000000
     0.16034272     0.98286414     0.10000000
     0.00489596     0.75520196     0.10000000
     0.02447980     0.77600979     0.10000000
     0.04406365     0.79681763     0.10000000
     0.06364749     0.81762546     0.10000000
     0.08323133     0.83843329     0.10000000
     0.10281518     0.85924113     0.10000000
     0.12239902     0.88004896     0.10000000
     0.14198286     0.90085679     0.10000000
     0.16156671     0.92166463     0.10000000
     0.18115055     0.94247246     0.10000000
     0.20073439     0.96328029     0.10000000
     0.22031824     0.98408813     0.10000000
     0.00611995     0.69400245     0.10000000
     0.02570379     0.71481028     0.10000000
     0.04528764     0.73561812     0.10000000
     0.06487148     0.75642595     0.10000000
     0.08445532     0.77723378     0.10000000
     0.10403917     0.79804162     0.10000000
     0.12362301     0.81884945     0.10000000
     0.14320685     0.83965728     0.10000000
     0.16279070     0.86046512     0.10000000
     0.18237454     0.88127295     0.10000000
     0.20195838     0.90208078     0.10000000
     0.22154223     0.92288862     0.10000000
     0.24112607     0.94369645     0.10000000
     0.26070991     0.96450428     0.10000000
     0.28029376     0.98531212     0.10000000
     0.00734394     0.63280294     0.10000000
     0.02692778     0.65361077     0.10000000
     0.04651163     0.67441860     0.10000000
     0.06609547     0.69522644     0.10000000
     0.08567931     0.71603427     0.10000000
     0.10526316     0.73684211     0.10000000
     0.12484700     0.75764994     0.10000000
     0.14443084     0.77845777     0.10000000
     0.16401469     0.79926561     0.10000000
     0.18359853     0.82007344     0.10000000
     0.20318237     0.84088127     0.10000000
     0.22276622     0.86168911     0.10000000
     0.24235006     0.88249694     0.10000000
     0.26193390     0.90330477     0.10000000
     0.28151775     0.92411261     0.10000000
     0.30110159     0.94492044     0.10000000
     0.32068543     0.96572827     0.10000000
     0.34026928     0.98653611     0.10000000
     0.00856793     0.57160343     0.10000000
     0.02815177     0.59241126     0.10000000
     0.04773562     0.61321909     0.10000000
     0.06731946     0.63402693     0.10000000
     0.08690330     0.65483476     0.10000000
     0.10648715     0.67564259     0.10000000
     0.12607099     0.69645043     0.10000000
     0.14565483     0.71725826     0.10000000
     0.16523868     0.73806610     0.10000000
     0.18482252     0.75887393     0.10000000
     0.20440636     0.77968176     0.10000000
     0.22399021     0.80048960     0.10000000
     0.24357405     0.82129743     0.10000000
     0.26315789     0.84210526     0.10000000
     0.28274174     0.86291310     0.10000000
     0.30232558     0.88372093     0.10000000
     0.32190942     0.90452876     0.10000000
     0.34149327     0.92533660     0.10000000
     0.36107711     0.94614443     0.10000000
     0.38066095     0.96695226     0.10000000
     0.40024480     0.98776010     0.10000000
     0.00979192     0.51040392     0.10000000
     0.02937576     0.53121175     0.10000000
     0.04895961     0.55201958     0.10000000
     0.06854345     0.57282742     0.10000000
     0.08812729     0.59363525     0.10000000
     0.10771114     0.61444308     0.10000000
     0.12729498     0.63525092     0.10000000
     0.14687882     0.65605875     0.10000000
     0.16646267     0.67686659     0.10000000
     0.18604651     0.69767442     0.10000000
     0.20563035     0.71848225     0.10000000
     0.22521420     0.73929009     0.10000000
     0.24479804     0.76009792     0.10000000
     0.26438188     0.78090575     0.10000000
     0.28396573     0.80171359     0.10000000
     0.30354957     0.82252142     0.10000000
     0.32313341     0.84332925     0.10000000
     0.34271726     0.86413709     0.10000000
     0.36230110     0.88494492     0.10000000
     0.38188494     0.90575275     0.10000000
     0.40146879     0.92656059     0.10000000
     0.42105263     0.94736842     0.10000000
     0.44063647     0.96817625     0.10000000
     0.46022032     0.98898409     0.10000000
     0.01101591     0.44920441     0.10000000
     0.03059976     0.47001224     0.10000000
     0.05018360     0.49082007     0.10000000
     0.06976744     0.51162791     0.10000000
     0.08935129     0.53243574     0.10000000
     0.10893513     0.55324357     0.10000000
     0.12851897     0.57405141     0.10000000
     0.14810282     0.59485924     0.10000000
     0.16768666     0.61566707     0.10000000
     0.18727050     0.63647491     0.10000000
     0.20685435     0.65728274     0.10000000
     0.22643819     0.67809058     0.10000000
     0.24602203     0.69889841     0.10000000
     0.26560588     0.71970624     0.10000000
     0.28518972     0.74051408     0.10000000
     0.30477356     0.76132191     0.10000000
     0.32435741     0.78212974     0.10000000
     0.34394125     0.80293758     0.10000000
     0.36352509     0.82374541     0.10000000
     0.38310894     0.84455324     0.10000000
     0.40269278     0.86536108     0.10000000
     0.42227662     0.88616891     0.10000000
     0.44186047     0.90697674     0.10000000
     0.46144431     0.92778458     0.10000000
     0.48102815     0.94859241     0.10000000
     0.50061200     0.96940024     0.10000000
     0.52019584     0.99020808     0.10000000
     0.01223990     0.38800490     0.10000000
     0.03182375     0.40881273     0.10000000
     0.05140759     0.42962056     0.10000000
     0.07099143     0.45042840     0.10000000
     0.09057528     0.47123623     0.10000000
     0.11015912     0.49204406     0.10000000
     0.12974296     0.51285190     0.10000000
     0.14932681     0.53365973     0.10000000
     0.16891065     0.55446756     0.10000000
     0.18849449     0.57527540     0.10000000
     0.20807834     0.59608323     0.10000000
     0.22766218     0.61689106     0.10000000
     0.24724602     0.63769890     0.10000000
     0.26682987     0.65850673     0.10000000
     0.28641371     0.67931457     0.10000000
     0.30599755     0.70012240     0.10000000
     0.32558140     0.72093023     0.10000000
     0.34516524     0.74173807     0.10000000
     0.36474908     0.76254590     0.10000000
     0.38433293     0.78335373     0.10000000
     0.40391677     0.80416157     0.10000000
     0.42350061     0.82496940     0.10000000
     0.44308446     0.84577723     0.10000000
     0.46266830     0.86658507     0.10000000
     0.48225214     0.88739290     0.10000000
     0.50183599     0.90820073     0.10000000
     0.52141983     0.92900857     0.10000000
     0.54100367     0.94981640     0.10000000
     0.56058752     0.97062424     0.10000000
     0.58017136     0.99143207     0.10000000
     0.01346389     0.32680539     0.10000000
     0.03304774     0.34761322     0.10000000
     0.05263158     0.36842105     0.10000000
     0.07221542     0.38922889     0.10000000
     0.09179927     0.41003672     0.10000000
     0.11138311     0.43084455     0.10000000
     0.13096695     0.45165239     0.10000000
     0.15055080     0.47246022     0.10000000
     0.17013464     0.49326805     0.10000000
     0.18971848     0.51407589     0.10000000
     0.20930233     0.53488372     0.10000000
     0.22888617     0.55569155     0.10000000
     0.24847001     0.57649939     0.10000000
     0.26805386     0.59730722     0.10000000
     0.28763770     0.61811506     0.10000000
     0.30722154     0.63892289     0.10000000
     0.32680539     0.65973072     0.10000000
     0.34638923     0.68053856     0.10000000
     0.36597307     0.70134639     0.10000000
     0.38555692     0.72215422     0.10000000
     0.40514076     0.74296206     0.10000000
     0.42472460     0.76376989     0.10000000
     0.44430845     0.78457772     0.10000000
     0.46389229     0.80538556     0.10000000
     0.48347613     0.82619339     0.10000000
     0.50305998     0.84700122     0.10000000
     0.52264382     0.86780906     0.10000000
     0.54222766     0.88861689     0.10000000
     0.56181151     0.90942472     0.10000000
     0.58139535     0.93023256     0.10000000
     0.60097919     0.95104039     0.10000000
     0.62056304     0.97184823     0.10000000
     0.64014688     0.99265606     0.10000000
     0.01468788     0.26560588     0.10000000
     0.03427173     0.28641371     0.10000000
     0.05385557     0.30722154     0.10000000
     0.07343941     0.32802938     0.10000000
     0.09302326     0.34883721     0.10000000
     0.11260710     0.36964504     0.10000000
     0.13219094     0.39045288     0.10000000
     0.15177479     0.41126071     0.10000000
     0.17135863     0.43206854     0.10000000
     0.19094247     0.45287638     0.10000000
     0.21052632     0.47368421     0.10000000
     0.23011016     0.49449204     0.10000000
     0.24969400     0.51529988     0.10000000
     0.26927785     0.53610771     0.10000000
     0.28886169     0.55691554     0.10000000
     0.30844553     0.57772338     0.10000000
     0.32802938     0.59853121     0.10000000
     0.34761322     0.61933905     0.10000000
     0.36719706     0.64014688     0.10000000
     0.38678091     0.66095471     0.10000000
     0.40636475     0.68176255     0.10000000
     0.42594859     0.70257038     0.10000000
     0.44553244     0.72337821     0.10000000
     0.46511628     0.74418605     0.10000000
     0.48470012     0.76499388     0.10000000
     0.50428397     0.78580171     0.10000000
     0.52386781     0.80660955     0.10000000
     0.54345165     0.82741738     0.10000000
     0.56303550     0.84822521     0.10000000
     0.58261934     0.86903305     0.10000000
     0.60220318     0.88984088     0.10000000
     0.62178703     0.91064871     0.10000000
     0.64137087     0.93145655     0.10000000
     0.66095471     0.95226438     0.10000000
     0.68053856     0.97307222     0.10000000
     0.70012240     0.99388005     0.10000000
     0.01591187     0.20440636     0.10000000
     0.03549572     0.22521420     0.10000000
     0.05507956     0.24602203     0.10000000
     0.07466340     0.26682987     0.10000000
     0.09424725     0.28763770     0.10000000
     0.11383109     0.30844553     0.10000000
     0.13341493     0.32925337     0.10000000
     0.15299878     0.35006120     0.10000000
     0.17258262     0.37086903     0.10000000
     0.19216646     0.39167687     0.10000000
     0.21175031     0.41248470     0.10000000
     0.23133415     0.43329253     0.10000000
     0.25091799     0.45410037     0.10000000
     0.27050184     0.47490820     0.10000000
     0.29008568     0.49571603     0.10000000
     0.30966952     0.51652387     0.10000000
     0.32925337     0.53733170     0.10000000
     0.34883721     0.55813953     0.10000000
     0.36842105     0.57894737     0.10000000
     0.38800490     0.59975520     0.10000000
     0.40758874     0.62056304     0.10000000
     0.42717258     0.64137087     0.10000000
     0.44675643     0.66217870     0.10000000
     0.46634027     0.68298654     0.10000000
     0.48592411     0.70379437     0.10000000
     0.50550796     0.72460220     0.10000000
     0.52509180     0.74541004     0.10000000
     0.54467564     0.76621787     0.10000000
     0.56425949     0.78702570     0.10000000
     0.58384333     0.80783354     0.10000000
     0.60342717     0.82864137     0.10000000
     0.62301102     0.84944920     0.10000000
     0.64259486     0.87025704     0.10000000
     0.66217870     0.89106487     0.10000000
     0.68176255     0.91187271     0.10000000
     0.70134639     0.93268054     0.10000000
     0.72093023     0.95348837     0.10000000
     0.74051408     0.97429621     0.10000000
     0.76009792     0.99510404     0.10000000
     0.01713586     0.14320685     0.10000000
     0.03671971     0.16401469     0.10000000
     0.05630355     0.18482252     0.10000000
     0.07588739     0.20563035     0.10000000
     0.09547124     0.22643819     0.10000000
     0.11505508     0.24724602     0.10000000
     0.13463892     0.26805386     0.10000000
     0.15422277     0.28886169     0.10000000
     0.17380661     0.30966952     0.10000000
     0.19339045     0.33047736     0.10000000
     0.21297430     0.35128519     0.10000000
     0.23255814     0.37209302     0.10000000
     0.25214198     0.39290086     0.10000000
     0.27172583     0.41370869     0.10000000
     0.29130967     0.43451652     0.10000000
     0.31089351     0.45532436     0.10000000
     0.33047736     0.47613219     0.10000000
     0.35006120     0.49694002     0.10000000
     0.36964504     0.51774786     0.10000000
     0.38922889     0.53855569     0.10000000
     0.40881273     0.55936353     0.10000000
     0.42839657     0.58017136     0.10000000
     0.44798042     0.60097919     0.10000000
     0.46756426     0.62178703     0.10000000
     0.48714810     0.64259486     0.10000000
     0.50673195     0.66340269     0.10000000
     0.52631579     0.68421053     0.10000000
     0.54589963     0.70501836     0.10000000
     0.56548348     0.72582619     0.10000000
     0.58506732     0.74663403     0.10000000
     0.60465116     0.76744186     0.10000000
     0.62423501     0.78824969     0.10000000
     0.64381885     0.80905753     0.10000000
     0.66340269     0.82986536     0.10000000
     0.68298654     0.85067319     0.10000000
     0.70257038     0.87148103     0.10000000
     0.72215422     0.89228886     0.10000000
     0.74173807     0.91309670     0.10000000
     0.76132191     0.93390453     0.10000000
     0.78090575     0.95471236     0.10000000
     0.80048960     0.97552020     0.10000000
     0.82007344     0.99632803     0.10000000
     0.01835985     0.08200734     0.10000000
     0.03794370     0.10281518     0.10000000
     0.05752754     0.12362301     0.10000000
     0.07711138     0.14443084     0.10000000
     0.09669523     0.16523868     0.10000000
     0.11627907     0.18604651     0.10000000
     0.13586291     0.20685435     0.10000000
     0.15544676     0.22766218     0.10000000
     0.17503060     0.24847001     0.10000000
     0.19461444     0.26927785     0.10000000
     0.21419829     0.29008568     0.10000000
     0.23378213     0.31089351     0.10000000
     0.25336597     0.33170135     0.10000000
     0.27294982     0.35250918     0.10000000
     0.29253366     0.37331701     0.10000000
     0.31211750     0.39412485     0.10000000
     0.33170135     0.41493268     0.10000000
     0.35128519     0.43574051     0.10000000
     0.37086903     0.45654835     0.10000000
     0.39045288     0.47735618     0.10000000
     0.41003672     0.49816401     0.10000000
     0.42962056     0.51897185     0.10000000
     0.44920441     0.53977968     0.10000000
     0.46878825     0.56058752     0.10000000
     0.48837209     0.58139535     0.10000000
     0.50795594     0.60220318     0.10000000
     0.52753978     0.62301102     0.10000000
     0.54712362     0.64381885     0.10000000
     0.56670747     0.66462668     0.10000000
     0.58629131     0.68543452     0.10000000
     0.60587515     0.70624235     0.10000000
     0.62545900     0.72705018     0.10000000
     0.64504284     0.74785802     0.10000000
     0.66462668     0.76866585     0.10000000
     0.68421053     0.78947368     0.10000000
     0.70379437     0.81028152     0.10000000
     0.72337821     0.83108935     0.10000000
     0.74296206     0.85189718     0.10000000
     0.76254590     0.87270502     0.10000000
     0.78212974     0.89351285     0.10000000
     0.80171359     0.91432069     0.10000000
     0.82129743     0.93512852     0.10000000
     0.84088127     0.95593635     0.10000000
     0.86046512     0.97674419     0.10000000
     0.88004896     0.99755202     0.10000000
     0.00000000     0.00000000     0.10000000
     0.01958384     0.02080783     0.10000000
     0.03916769     0.04161567     0.10000000
     0.05875153     0.06242350     0.10000000
     0.07833537     0.08323133     0.10000000
     0.09791922     0.10403917     0.10000000
     0.11750306     0.12484700     0.10000000
     0.13708690     0.14565483     0.10000000
     0.15667075     0.16646267     0.10000000
     0.17625459     0.18727050     0.10000000
     0.19583843     0.20807834     0.10000000
     0.21542228     0.22888617     0.10000000
     0.23500612     0.24969400     0.10000000
     0.25458996     0.27050184     0.10000000
     0.27417381     0.29130967     0.10000000
     0.29375765     0.31211750     0.10000000
     0.31334149     0.33292534     0.10000000
     0.33292534     0.35373317     0.10000000
     0.35250918     0.37454100     0.10000000
     0.37209302     0.39534884     0.10000000
     0.39167687     0.41615667     0.10000000
     0.41126071     0.43696450     0.10000000
     0.43084455     0.45777234     0.10000000
     0.45042840     0.47858017     0.10000000
     0.47001224     0.49938800     0.10000000
     0.48959608     0.52019584     0.10000000
     0.50917993     0.54100367     0.10000000
     0.52876377     0.56181151     0.10000000
     0.54834761     0.58261934     0.10000000
     0.56793146     0.60342717     0.10000000
     0.58751530     0.62423501     0.10000000
     0.60709914     0.64504284     0.10000000
     0.62668299     0.66585067     0.10000000
     0.64626683     0.68665851     0.10000000
     0.66585067     0.70746634     0.10000000
     0.68543452     0.72827417     0.10000000
     0.70501836     0.74908201     0.10000000
     0.72460220     0.76988984     0.10000000
     0.74418605     0.79069767     0.10000000
     0.76376989     0.81150551     0.10000000
     0.78335373     0.83231334     0.10000000
     0.80293758     0.85312118     0.10000000
     0.82252142     0.87392901     0.10000000
     0.84210526     0.89473684     0.10000000
     0.86168911     0.91554468     0.10000000
     0.88127295     0.93635251     0.10000000
     0.90085679     0.95716034     0.10000000
     0.92044064     0.97796818     0.10000000
     0.94002448     0.99877601     0.10000000
     0.05997552     0.00122399     0.10000000
     0.07955936     0.02203182     0.10000000
     0.09914321     0.04283966     0.10000000
     0.11872705     0.06364749     0.10000000
     0.13831089     0.08445532     0.10000000
     0.15789474     0.10526316     0.10000000
     0.17747858     0.12607099     0.10000000
     0.19706242     0.14687882     0.10000000
     0.21664627     0.16768666     0.10000000
     0.23623011     0.18849449     0.10000000
     0.25581395     0.20930233     0.10000000
     0.27539780     0.23011016     0.10000000
     0.29498164     0.25091799     0.10000000
     0.31456548     0.27172583     0.10000000
     0.33414933     0.29253366     0.10000000
     0.35373317     0.31334149     0.10000000
     0.37331701     0.33414933     0.10000000
     0.39290086     0.35495716     0.10000000
     0.41248470     0.37576499     0.10000000
     0.43206854     0.39657283     0.10000000
     0.45165239     0.41738066     0.10000000
     0.47123623     0.43818849     0.10000000
     0.49082007     0.45899633     0.10000000
     0.51040392     0.47980416     0.10000000
     0.52998776     0.50061200     0.10000000
     0.54957160     0.52141983     0.10000000
     0.56915545     0.54222766     0.10000000
     0.58873929     0.56303550     0.10000000
     0.60832313     0.58384333     0.10000000
     0.62790698     0.60465116     0.10000000
     0.64749082     0.62545900     0.10000000
     0.66707466     0.64626683     0.10000000
     0.68665851     0.66707466     0.10000000
     0.70624235     0.68788250     0.10000000
     0.72582619     0.70869033     0.10000000
     0.74541004     0.72949816     0.10000000
     0.76499388     0.75030600     0.10000000
     0.78457772     0.77111383     0.10000000
     0.80416157     0.79192166     0.10000000
     0.82374541     0.81272950     0.10000000
     0.84332925     0.83353733     0.10000000
     0.86291310     0.85434517     0.10000000
     0.88249694     0.87515300     0.10000000
     0.90208078     0.89596083     0.10000000
     0.92166463     0.91676867     0.10000000
     0.94124847     0.93757650     0.10000000
     0.96083231     0.95838433     0.10000000
     0.98041616     0.97919217     0.10000000
     0.11995104     0.00244798     0.10000000
     0.13953488     0.02325581     0.10000000
     0.15911873     0.04406365     0.10000000
     0.17870257     0.06487148     0.10000000
     0.19828641     0.08567931     0.10000000
     0.21787026     0.10648715     0.10000000
     0.23745410     0.12729498     0.10000000
     0.25703794     0.14810282     0.10000000
     0.27662179     0.16891065     0.10000000
     0.29620563     0.18971848     0.10000000
     0.31578947     0.21052632     0.10000000
     0.33537332     0.23133415     0.10000000
     0.35495716     0.25214198     0.10000000
     0.37454100     0.27294982     0.10000000
     0.39412485     0.29375765     0.10000000
     0.41370869     0.31456548     0.10000000
     0.43329253     0.33537332     0.10000000
     0.45287638     0.35618115     0.10000000
     0.47246022     0.37698898     0.10000000
     0.49204406     0.39779682     0.10000000
     0.51162791     0.41860465     0.10000000
     0.53121175     0.43941248     0.10000000
     0.55079559     0.46022032     0.10000000
     0.57037944     0.48102815     0.10000000
     0.58996328     0.50183599     0.10000000
     0.60954712     0.52264382     0.10000000
     0.62913097     0.54345165     0.10000000
     0.64871481     0.56425949     0.10000000
     0.66829865     0.58506732     0.10000000
     0.68788250     0.60587515     0.10000000
     0.70746634     0.62668299     0.10000000
     0.72705018     0.64749082     0.10000000
     0.74663403     0.66829865     0.10000000
     0.76621787     0.68910649     0.10000000
     0.78580171     0.70991432     0.10000000
     0.80538556     0.73072215     0.10000000
     0.82496940     0.75152999     0.10000000
     0.84455324     0.77233782     0.10000000
     0.86413709     0.79314565     0.10000000
     0.88372093     0.81395349     0.10000000
     0.90330477     0.83476132     0.10000000
     0.92288862     0.85556916     0.10000000
     0.94247246     0.87637699     0.10000000
     0.96205630     0.89718482     0.10000000
     0.98164015     0.91799266     0.10000000
     0.17992656     0.00367197     0.10000000
     0.19951040     0.02447980     0.10000000
     0.21909425     0.04528764     0.10000000
     0.23867809     0.06609547     0.10000000
     0.25826193     0.08690330     0.10000000
     0.27784578     0.10771114     0.10000000
     0.29742962     0.12851897     0.10000000
     0.31701346     0.14932681     0.10000000
     0.33659731     0.17013464     0.10000000
     0.35618115     0.19094247     0.10000000
     0.37576499     0.21175031     0.10000000
     0.39534884     0.23255814     0.10000000
     0.41493268     0.25336597     0.10000000
     0.43451652     0.27417381     0.10000000
     0.45410037     0.29498164     0.10000000
     0.47368421     0.31578947     0.10000000
     0.49326805     0.33659731     0.10000000
     0.51285190     0.35740514     0.10000000
     0.53243574     0.37821297     0.10000000
     0.55201958     0.39902081     0.10000000
     0.57160343     0.41982864     0.10000000
     0.59118727     0.44063647     0.10000000
     0.61077111     0.46144431     0.10000000
     0.63035496     0.48225214     0.10000000
     0.64993880     0.50305998     0.10000000
     0.66952264     0.52386781     0.10000000
     0.68910649     0.54467564     0.10000000
     0.70869033     0.56548348     0.10000000
     0.72827417     0.58629131     0.10000000
     0.74785802     0.60709914     0.10000000
     0.76744186     0.62790698     0.10000000
     0.78702570     0.64871481     0.10000000
     0.80660955     0.66952264     0.10000000
     0.82619339     0.69033048     0.10000000
     0.84577723     0.71113831     0.10000000
     0.86536108     0.73194614     0.10000000
     0.88494492     0.75275398     0.10000000
     0.90452876     0.77356181     0.10000000
     0.92411261     0.79436965     0.10000000
     0.94369645     0.81517748     0.10000000
     0.96328029     0.83598531     0.10000000
     0.98286414     0.85679315     0.10000000
     0.23990208     0.00489596     0.10000000
     0.25948592     0.02570379     0.10000000
     0.27906977     0.04651163     0.10000000
     0.29865361     0.06731946     0.10000000
     0.31823745     0.08812729     0.10000000
     0.33782130     0.10893513     0.10000000
     0.35740514     0.12974296     0.10000000
     0.37698898     0.15055080     0.10000000
     0.39657283     0.17135863     0.10000000
     0.41615667     0.19216646     0.10000000
     0.43574051     0.21297430     0.10000000
     0.45532436     0.23378213     0.10000000
     0.47490820     0.25458996     0.10000000
     0.49449204     0.27539780     0.10000000
     0.51407589     0.29620563     0.10000000
     0.53365973     0.31701346     0.10000000
     0.55324357     0.33782130     0.10000000
     0.57282742     0.35862913     0.10000000
     0.59241126     0.37943696     0.10000000
     0.61199510     0.40024480     0.10000000
     0.63157895     0.42105263     0.10000000
     0.65116279     0.44186047     0.10000000
     0.67074663     0.46266830     0.10000000
     0.69033048     0.48347613     0.10000000
     0.70991432     0.50428397     0.10000000
     0.72949816     0.52509180     0.10000000
     0.74908201     0.54589963     0.10000000
     0.76866585     0.56670747     0.10000000
     0.78824969     0.58751530     0.10000000
     0.80783354     0.60832313     0.10000000
     0.82741738     0.62913097     0.10000000
     0.84700122     0.64993880     0.10000000
     0.86658507     0.67074663     0.10000000
     0.88616891     0.69155447     0.10000000
     0.90575275     0.71236230     0.10000000
     0.92533660     0.73317013     0.10000000
     0.94492044     0.75397797     0.10000000
     0.96450428     0.77478580     0.10000000
     0.98408813     0.79559364     0.10000000
     0.29987760     0.00611995     0.10000000
     0.31946144     0.02692778     0.10000000
     0.33904529     0.04773562     0.10000000
     0.35862913     0.06854345     0.10000000
     0.37821297     0.08935129     0.10000000
     0.39779682     0.11015912     0.10000000
     0.41738066     0.13096695     0.10000000
     0.43696450     0.15177479     0.10000000
     0.45654835     0.17258262     0.10000000
     0.47613219     0.19339045     0.10000000
     0.49571603     0.21419829     0.10000000
     0.51529988     0.23500612     0.10000000
     0.53488372     0.25581395     0.10000000
     0.55446756     0.27662179     0.10000000
     0.57405141     0.29742962     0.10000000
     0.59363525     0.31823745     0.10000000
     0.61321909     0.33904529     0.10000000
     0.63280294     0.35985312     0.10000000
     0.65238678     0.38066095     0.10000000
     0.67197062     0.40146879     0.10000000
     0.69155447     0.42227662     0.10000000
     0.71113831     0.44308446     0.10000000
     0.73072215     0.46389229     0.10000000
     0.75030600     0.48470012     0.10000000
     0.76988984     0.50550796     0.10000000
     0.78947368     0.52631579     0.10000000
     0.80905753     0.54712362     0.10000000
     0.82864137     0.56793146     0.10000000
     0.84822521     0.58873929     0.10000000
     0.86780906     0.60954712     0.10000000
     0.88739290     0.63035496     0.10000000
     0.90697674     0.65116279     0.10000000
     0.92656059     0.67197062     0.10000000
     0.94614443     0.69277846     0.10000000
     0.96572827     0.71358629     0.10000000
     0.98531212     0.73439412     0.10000000
     0.35985312     0.00734394     0.10000000
     0.37943696     0.02815177     0.10000000
     0.39902081     0.04895961     0.10000000
     0.41860465     0.06976744     0.10000000
     0.43818849     0.09057528     0.10000000
     0.45777234     0.11138311     0.10000000
     0.47735618     0.13219094     0.10000000
     0.49694002     0.15299878     0.10000000
     0.51652387     0.17380661     0.10000000
     0.53610771     0.19461444     0.10000000
     0.55569155     0.21542228     0.10000000
     0.57527540     0.23623011     0.10000000
     0.59485924     0.25703794     0.10000000
     0.61444308     0.27784578     0.10000000
     0.63402693     0.29865361     0.10000000
     0.65361077     0.31946144     0.10000000
     0.67319461     0.34026928     0.10000000
     0.69277846     0.36107711     0.10000000
     0.71236230     0.38188494     0.10000000
     0.73194614     0.40269278     0.10000000
     0.75152999     0.42350061     0.10000000
     0.77111383     0.44430845     0.10000000
     0.79069767     0.46511628     0.10000000
     0.81028152     0.48592411     0.10000000
     0.82986536     0.50673195     0.10000000
     0.84944920     0.52753978     0.10000000
     0.86903305     0.54834761     0.10000000
     0.88861689     0.56915545     0.10000000