Generated by Twist2D
    1.0
      31.97350000      17.03991584       0.00000000
       1.22975000      36.20982117       0.00000000
       0.00000000       0.00000000      30.00000000
    C
    868
Direct
     0.00460829     0.88018433     0.10000000
     0.04147465     0.92165899     0.10000000
     0.07834101     0.96313364     0.10000000
     0.00921659     0.76036866     0.10000000
     0.04608295     0.80184332     0.10000000
     0.08294931     0.84331797     0.10000000
     0.11981567     0.88479263     0.10000000
     0.15668203     0.92626728     0.10000000
     0.19354839     0.96774194     0.10000000
     0.01382488     0.64055300     0.10000000
     0.05069124     0.68202765     0.10000000
     0.08755760     0.72350230     0.10000000
     0.12442396     0.76497696     0.10000000
     0.16129032     0.80645161     0.10000000
     0.19815668     0.84792627     0.10000000
     0.23502304     0.88940092     0.10000000
     0.27188940     0.93087558     0.10000000
     0.30875576     0.97235023     0.10000000
     0.01843318     0.52073733     0.10000000
     0.05529954     0.56221198     0.10000000
     0.09216590     0.60368664     0.10000000
     0.12903226     0.64516129     0.10000000
     0.16589862     0.68663594     0.10000000
     0.20276498     0.72811060     0.10000000
     0.23963134     0.76958525     0.10000000
     0.27649770     0.81105991     0.10000000
     0.31336406     0.85253456     0.10000000
     0.35023041     0.89400922     0.10000000
     0.38709677     0.93548387     0.10000000
     0.42396313     0.97695853     0.10000000
     0.02304147     0.40092166     0.10000000
     0.05990783     0.44239631     0.10000000
     0.09677419     0.48387097     0.10000000
     0.13364055     0.52534562     0.10000000
     0.17050691     0.56682028     0.10000000
     0.20737327     0.60829493     0.10000000
     0.24423963     0.64976959     0.10000000
     0.28110599     0.69124424     0.10000000
     0.31797235     0.73271889     0.10000000
     0.35483871     0.77419355     0.10000000
     0.39170507     0.81566820     0.10000000
     0.42857143     0.85714286     0.10000000
     0.46543779     0.89861751     0.10000000
     0.50230415     0.94009217     0.10000000
     0.53917051     0.98156682     0.10000000
     0.02764977     0.28110599     0.10000000
     0.06451613     0.32258065     0.10000000
     0.10138249     0.36405530     0.10000000
     0.13824885     0.40552995     0.10000000
     0.17511521     0.44700461     0.10000000
     0.21198157     0.48847926     0.10000000
     0.24884793     0.52995392     0.10000000
     0.28571429     0.57142857     0.10000000
     0.32258065     0.61290323     0.10000000
     0.35944700     0.65437788     0.10000000
     0.39631336     0.69585253     0.10000000
     0.43317972     0.73732719     0.10000000
     0.47004608     0.77880184     0.10000000
     0.50691244     0.82027650     0.10000000
     0.54377880     0.86175115     0.10000000
     0.58064516     0.90322581     0.10000000
     0.61751152     0.94470046     0.10000000
     0.65437788     0.98617512     0.10000000
     0.03225806     0.16129032     0.10000000
     0.06912442     0.20276498     0.10000000
     0.10599078     0.24423963     0.10000000
     0.14285714     0.28571429     0.10000000
     0.17972350     0.32718894     0.10000000
     0.21658986     0.36866359     0.10000000
     0.25345622     0.41013825     0.10000000
     0.29032258     0.45161290     0.10000000
     0.32718894     0.49308756     0.10000000
     0.36405530     0.53456221     0.10000000
     0.40092166     0.57603687     0.10000000
     0.43778802     0.61751152     0.10000000
     0.47465438     0.65898618     0.10000000
     0.51152074     0.70046083     0.10000000
     0.54838710     0.74193548     0.10000000
     0.58525346     0.78341014     0.10000000
     0.62211982     0.82488479     0.10000000
     0.65898618     0.86635945     0.10000000
     0.69585253     0.90783410     0.10000000
     0.73271889     0.94930876     0.10000000
     0.76958525     0.99078341     0.10000000
     0.00000000     0.00000000     0.10000000
     0.03686636     0.04147465     0.10000000
     0.07373272     0.08294931     0.10000000
     0.11059908     0.12442396     0.10000000
     0.14746544     0.16589862     0.10000000
     0.18433180     0.20737327     0.10000000
     0.22119816     0.24884793     0.10000000
     0.25806452     0.29032258     0.10000000
     0.29493088     0.33179724     0.10000000
     0.33179724     0.37327189     0.10000000
     0.36866359     0.41474654     0.10000000
     0.40552995     0.45622120     0.10000000
     0.44239631     0.49769585     0.10000000
     0.47926267     0.53917051     0.10000000
     0.51612903     0.58064516     0.10000000
     0.55299539     0.62211982     0.10000000
     0.58986175     0.66359447     0.10000000
     0.62672811     0.70506912     0.10000000
     0.66359447     0.74654378     0.10000000
     0.70046083     0.78801843     0.10000000
     0.73732719     0.82949309     0.10000000
     0.77419355     0.87096774     0.10000000
     0.81105991     0.91244240     0.10000000
     0.84792627     0.95391705     0.10000000
     0.88479263     0.99539171     0.10000000
     0.11520737     0.00460829     0.10000000
     0.15207373     0.04608295     0.10000000
     0.18894009     0.08755760     0.10000000
     0.22580645     0.12903226     0.10000000
     0.26267281     0.17050691     0.10000000
     0.29953917     0.21198157     0.10000000
     0.33640553     0.25345622     0.10000000
     0.37327189     0.29493088     0.10000000
     0.41013825     0.33640553     0.10000000
     0.44700461     0.37788018     0.10000000
     0.48387097     0.41935484     0.10000000
     0.52073733     0.46082949     0.10000000
     0.55760369     0.50230415     0.10000000
     0.59447005     0.54377880     0.10000000
     0.63133641     0.58525346     0.10000000
     0.66820276     0.62672811     0.10000000
     0.70506912     0.66820276     0.10000000
     0.74193548     0.70967742     0.10000000
     0.77880184     0.75115207     0.10000000
     0.81566820     0.79262673     0.10000000
     0.85253456     0.83410138     0.10000000
     0.88940092     0.87557604     0.10000000
     0.92626728     0.91705069     0.10000000
     0.96313364     0.95852535     0.10000000
     0.23041475     0.00921659     0.10000000
     0.26728111     0.05069124     0.10000000
     0.30414747     0.09216590     0.10000000
     0.34101382     0.13364055     0.10000000
     0.37788018     0.17511521     0.10000000
     0.41474654     0.21658986     0.10000000
     0.45161290     0.25806452     0.10000000
     0.48847926     0.29953917     0.10000000
     0.52534562     0.34101382     0.10000000
     0.56221198     0.38248848     0.10000000
     0.59907834     0.42396313     0.10000000
     0.63594470     0.46543779     0.10000000
     0.67281106     0.50691244     0.10000000
     0.70967742     0.54838710     0.10000000
     0.74654378     0.58986175     0.10000000
     0.78341014     0.63133641     0.10000000
     0.82027650     0.67281106     0.10000000
     0.85714286     0.71428571     0.10000000
     0.89400922     0.75576037     0.10000000
     0.93087558     0.79723502     0.10000000
     0.96774194     0.83870968     0.10000000
     0.34562212     0.01382488     0.10000000
     0.38248848     0.05529954     0.10000000
     0.41935484     0.09677419     0.10000000
     0.45622120     0.13824885     0.10000000
     0.49308756     0.17972350     0.10000000
     0.52995392     0.22119816     0.10000000
     0.56682028     0.26267281     0.10000000
     0.60368664     0.30414747     0.10000000
     0.64055300     0.34562212     0.10000000
     0.67741935     0.38709677     0.10000000
     0.71428571     0.42857143     0.10000000
     0.75115207     0.47004608     0.10000000
     0.78801843     0.51152074     0.10000000
     0.82488479     0.55299539     0.10000000
     0.86175115     0.59447005     0.10000000
     0.89861751     0.63594470     0.10000000
     0.93548387     0.67741935     0.10000000
     0.97235023     0.71889401     0.10000000
     0.46082949     0.01843318     0.10000000
     0.49769585     0.05990783     0.10000000
     0.53456221     0.10138249     0.10000000
     0.57142857     0.14285714     0.10000000
     0.60829493     0.18433180     0.10000000
     0.64516129     0.22580645     0.10000000
     0.68202765     0.26728111     0.10000000
     0.71889401     0.30875576     0.10000000
     0.75576037     0.35023041     0.10000000
     0.79262673     0.39170507     0.10000000
     0.82949309     0.43317972     0.10000000
     0.86635945     0.47465438     0.10000000
     0.90322581     0.51612903     0.10000000
     0.94009217     0.55760369     0.10000000
     0.97695853     0.59907834     0.10000000
     0.57603687     0.02304147     0.10000000
     0.61290323     0.06451613     0.10000000
     0.64976959     0.10599078     0.10000000
     0.68663594     0.14746544     0.10000000
     0.72350230     0.18894009     0.10000000
     0.76036866     0.23041475     0.10000000
     0.79723502     0.27188940     0.10000000
     0.83410138     0.31336406     0.10000000
     0.87096774     0.35483871     0.10000000
     0.90783410     0.39631336     0.10000000
     0.94470046     0.43778802     0.10000000
     0.98156682     0.47926267     0.10000000
     0.69124424     0.02764977     0.10000000
     0.72811060     0.06912442     0.10000000
     0.76497696     0.11059908     0.10000000
     0.80184332     0.15207373     0.10000000
     0.83870968     0.19354839     0.10000000
     0.87557604     0.23502304     0.10000000
     0.91244240     0.27649770     0.10000000
     0.94930876     0.31797235     0.10000000
     0.98617512     0.35944700     0.10000000
     0.80645161     0.03225806     0.10000000
     0.84331797     0.07373272     0.10000000
     0.88018433     0.11520737     0.10000000
     0.91705069     0.15668203     0.10000000
     0.95391705     0.19815668     0.10000000
     0.99078341     0.23963134     0.10000000
     0.92165899     0.03686636     0.10000000
     0.95852535     0.07834101     0.10000000
     0.99539171     0.11981567     0.10000000
     0.08141321     0.88325653     0.10000000
     0.11827957     0.92473118     0.10000000
     0.15514593     0.96620583     0.10000000
     0.08602151     0.76344086     0.10000000
     0.12288786     0.80491551     0.10000000
     0.15975422     0.84639017     0.10000000
     0.19662058     0.88786482     0.10000000
     0.23348694     0.92933948     0.10000000
     0.27035330     0.97081413     0.10000000
     0.09062980     0.64362519     0.10000000
     0.12749616     0.68509984     0.10000000
     0.16436252     0.72657450     0.10000000
     0.20122888     0.76804915     0.10000000
     0.23809524     0.80952381     0.10000000
     0.27496160     0.85099846     0.10000000
     0.31182796     0.89247312     0.10000000
     0.34869432     0.93394777     0.10000000
     0.38556068     0.97542242     0.10000000
     0.09523810     0.52380952     0.10000000
     0.13210445     0.56528418     0.10000000
     0.16897081     0.60675883     0.10000000
     0.20583717     0.64823348     0.10000000
     0.24270353     0.68970814     0.10000000
     0.27956989     0.73118279     0.10000000
     0.31643625     0.77265745     0.10000000
     0.35330261     0.81413210     0.10000000
     0.39016897     0.85560676     0.10000000
     0.42703533     0.89708141     0.10000000
     0.46390169     0.93855607     0.10000000
     0.50076805     0.98003072     0.10000000
     0.09984639     0.40399385     0.10000000
     0.13671275     0.44546851     0.10000000
     0.17357911     0.48694316     0.10000000
     0.21044547     0.52841782     0.10000000
     0.24731183     0.56989247     0.10000000
     0.28417819     0.61136713     0.10000000
     0.32104455     0.65284178     0.10000000
     0.35791091     0.69431643     0.10000000
     0.39477727     0.73579109     0.10000000
     0.43164363     0.77726574     0.10000000
     0.46850998     0.81874040     0.10000000
     0.50537634     0.86021505     0.10000000
     0.54224270     0.90168971     0.10000000
     0.57910906     0.94316436     0.10000000
     0.61597542     0.98463901     0.10000000
     0.10445469     0.28417819     0.10000000
     0.14132104     0.32565284     0.10000000
     0.17818740     0.36712749     0.10000000
     0.21505376     0.40860215     0.10000000
     0.25192012     0.45007680     0.10000000
     0.28878648     0.49155146     0.10000000
     0.32565284     0.53302611     0.10000000
     0.36251920     0.57450077     0.10000000
     0.39938556     0.61597542     0.10000000
     0.43625192     0.65745007     0.10000000
     0.47311828     0.69892473     0.10000000
     0.50998464     0.74039938     0.10000000
     0.54685100     0.78187404     0.10000000
     0.58371736     0.82334869     0.10000000
     0.62058372     0.86482335     0.10000000
     0.65745008     0.90629800     0.10000000
     0.69431644     0.94777266     0.10000000
     0.73118280     0.98924731     0.10000000
     0.10906298     0.16436252     0.10000000
     0.14592934     0.20583717     0.10000000
     0.18279570     0.24731183     0.10000000
     0.21966206     0.28878648     0.10000000
     0.25652842     0.33026113     0.10000000
     0.29339478     0.37173579     0.10000000
     0.33026114     0.41321044     0.10000000
     0.36712750     0.45468510     0.10000000
     0.40399386     0.49615975     0.10000000
     0.44086022     0.53763441     0.10000000
     0.47772657     0.57910906     0.10000000
     0.51459293     0.62058371     0.10000000
     0.55145929     0.66205837     0.10000000
     0.58832565     0.70353302     0.10000000
     0.62519201     0.74500768     0.10000000
     0.66205837     0.78648233     0.10000000
     0.69892473     0.82795699     0.10000000
     0.73579109     0.86943164     0.10000000
     0.77265745     0.91090630     0.10000000
     0.80952381     0.95238095     0.10000000
     0.84639017     0.99385560     0.10000000
     0.07680492     0.00307219     0.10000000
     0.11367128     0.04454685     0.10000000
     0.15053763     0.08602150     0.10000000
     0.18740399     0.12749616     0.10000000
     0.22427035     0.16897081     0.10000000
     0.26113671     0.21044547     0.10000000
     0.29800307     0.25192012     0.10000000
     0.33486943     0.29339477     0.10000000
     0.37173579     0.33486943     0.10000000
     0.40860215     0.37634408     0.10000000
     0.44546851     0.41781874     0.10000000
     0.48233487     0.45929339     0.10000000
     0.51920123     0.50076805     0.10000000
     0.55606759     0.54224270     0.10000000
     0.59293395     0.58371736     0.10000000
     0.62980031     0.62519201     0.10000000
     0.66666667     0.66666666     0.10000000
     0.70353303     0.70814132     0.10000000
     0.74039939     0.74961597     0.10000000
     0.77726575     0.79109063     0.10000000
     0.81413210     0.83256528     0.10000000
     0.85099846     0.87403994     0.10000000
     0.88786482     0.91551459     0.10000000
     0.92473118     0.95698924     0.10000000
     0.96159754     0.99846390     0.10000000
     0.19201229     0.00768049     0.10000000
     0.22887865     0.04915514     0.10000000
     0.26574501     0.09062980     0.10000000
     0.30261137     0.13210445     0.10000000
     0.33947773     0.17357911     0.10000000
     0.37634409     0.21505376     0.10000000
     0.41321045     0.25652842     0.10000000
     0.45007681     0.29800307     0.10000000
     0.48694316     0.33947772     0.10000000
     0.52380952     0.38095238     0.10000000
     0.56067588     0.42242703     0.10000000
     0.59754224     0.46390169     0.10000000
     0.63440860     0.50537634     0.10000000
     0.67127496     0.54685100     0.10000000
     0.70814132     0.58832565     0.10000000
     0.74500768     0.62980030     0.10000000
     0.78187404     0.67127496     0.10000000
     0.81874040     0.71274961     0.10000000
     0.85560676     0.75422427     0.10000000
     0.89247312     0.79569892     0.10000000
     0.92933948     0.83717358     0.10000000
     0.96620584     0.87864823     0.10000000
     1.00307220     0.92012289     0.10000000
     1.03993856     0.96159754     0.10000000
     0.30721966     0.01228878     0.10000000
     0.34408602     0.05376344     0.10000000
     0.38095238     0.09523809     0.10000000
     0.41781874     0.13671275     0.10000000
     0.45468510     0.17818740     0.10000000
     0.49155146     0.21966206     0.10000000
     0.52841782     0.26113671     0.10000000
     0.56528418     0.30261136     0.10000000
     0.60215054     0.34408602     0.10000000
     0.63901690     0.38556067     0.10000000
     0.67588326     0.42703533     0.10000000
     0.71274962     0.46850998     0.10000000
     0.74961598     0.50998464     0.10000000
     0.78648233     0.55145929     0.10000000
     0.82334869     0.59293395     0.10000000
     0.86021505     0.63440860     0.10000000
     0.89708141     0.67588325     0.10000000
     0.93394777     0.71735791     0.10000000
     0.97081413     0.75883256     0.10000000
     1.00768049     0.80030722     0.10000000
     1.04454685     0.84178187     0.10000000
     0.42242704     0.01689708     0.10000000
     0.45929339     0.05837173     0.10000000
     0.49615975     0.09984639     0.10000000
     0.53302611     0.14132104     0.10000000
     0.56989247     0.18279570     0.10000000
     0.60675883     0.22427035     0.10000000
     0.64362519     0.26574501     0.10000000
     0.68049155     0.30721966     0.10000000
     0.71735791     0.34869431     0.10000000
     0.75422427     0.39016897     0.10000000
     0.79109063     0.43164362     0.10000000
     0.82795699     0.47311828     0.10000000
     0.86482335     0.51459293     0.10000000
     0.90168971     0.55606759     0.10000000
     0.93855607     0.59754224     0.10000000
     0.97542243     0.63901689     0.10000000
     1.01228879     0.68049155     0.10000000
     1.04915515     0.72196620     0.10000000
     0.53763441     0.02150537     0.10000000
     0.57450077     0.06298003     0.10000000
     0.61136713     0.10445468     0.10000000
     0.64823349     0.14592934     0.10000000
     0.68509985     0.18740399     0.10000000
     0.72196621     0.22887865     0.10000000
     0.75883257     0.27035330     0.10000000
     0.79569892     0.31182795     0.10000000
     0.83256528     0.35330261     0.10000000
     0.86943164     0.39477726     0.10000000
     0.90629800     0.43625192     0.10000000
     0.94316436     0.47772657     0.10000000
     0.98003072     0.51920123     0.10000000
     1.01689708     0.56067588     0.10000000
     1.05376344     0.60215054     0.10000000
     0.65284178     0.02611367     0.10000000
     0.68970814     0.06758832     0.10000000
     0.72657450     0.10906298     0.10000000
     0.76344086     0.15053763     0.10000000
     0.80030722     0.19201229     0.10000000
     0.83717358     0.23348694     0.10000000
     0.87403994     0.27496160     0.10000000
     0.91090630     0.31643625     0.10000000
     0.94777266     0.35791090     0.10000000
     0.98463902     0.39938556     0.10000000
     1.02150538     0.44086021     0.10000000
     1.05837174     0.48233487     0.10000000
     0.76804916     0.03072196     0.10000000
     0.80491551     0.07219662     0.10000000
     0.84178187     0.11367127     0.10000000
     0.87864823     0.15514593     0.10000000
     0.91551459     0.19662058     0.10000000
     0.95238095     0.23809524     0.10000000
     0.98924731     0.27956989     0.10000000
     1.02611367     0.32104454     0.10000000
     1.06298003     0.36251920     0.10000000
     0.88325653     0.03533026     0.10000000
     0.92012289     0.07680491     0.10000000
     0.95698925     0.11827957     0.10000000
     0.99385561     0.15975422     0.10000000
     1.03072197     0.20122888     0.10000000
     1.06758833     0.24270353     0.10000000
     0.99846390     0.03993855     0.10000000
     1.03533026     0.08141321     0.10000000
     1.07219662     0.12288786     0.10000000
     0.03686636     0.92165899     0.21361333
     0.07834101     0.95852535     0.21361333
     0.11981567     0.99539171     0.21361333
     0.03225806     0.80645161     0.21361333
     0.07373272     0.84331797     0.21361333
     0.11520737     0.88018433     0.21361333
     0.15668203     0.91705069     0.21361333
     0.19815668     0.95391705     0.21361333
     0.23963134     0.99078341     0.21361333
     0.02764977     0.69124424     0.21361333
     0.06912442     0.72811060     0.21361333
     0.11059908     0.76497696     0.21361333
     0.15207373     0.80184332     0.21361333
     0.19354839     0.83870968     0.21361333
     0.23502304     0.87557604     0.21361333
     0.27649770     0.91244240     0.21361333
     0.31797235     0.94930876     0.21361333
     0.35944700     0.98617512     0.21361333
     0.02304147     0.57603687     0.21361333
     0.06451613     0.61290323     0.21361333
     0.10599078     0.64976959     0.21361333
     0.14746544     0.68663594     0.21361333
     0.18894009     0.72350230     0.21361333
     0.23041475     0.76036866     0.21361333
     0.27188940     0.79723502     0.21361333
     0.31336406     0.83410138     0.21361333
     0.35483871     0.87096774     0.21361333
     0.39631336     0.90783410     0.21361333
     0.43778802     0.94470046     0.21361333
     0.47926267     0.98156682     0.21361333
     0.01843318     0.46082949     0.21361333
     0.05990783     0.49769585     0.21361333
     0.10138249     0.53456221     0.21361333
     0.14285714     0.57142857     0.21361333
     0.18433180     0.60829493     0.21361333
     0.22580645     0.64516129     0.21361333
     0.26728111     0.68202765     0.21361333
     0.30875576     0.71889401     0.21361333
     0.35023041     0.75576037     0.21361333
     0.39170507     0.79262673     0.21361333
     0.43317972     0.82949309     0.21361333
     0.47465438     0.86635945     0.21361333
     0.51612903     0.90322581     0.21361333
     0.55760369     0.94009217     0.21361333
     0.59907834     0.97695853     0.21361333
     0.01382488     0.34562212     0.21361333
     0.05529954     0.38248848     0.21361333
     0.09677419     0.41935484     0.21361333
     0.13824885     0.45622120     0.21361333
     0.17972350     0.49308756     0.21361333
     0.22119816     0.52995392     0.21361333
     0.26267281     0.56682028     0.21361333
     0.30414747     0.60368664     0.21361333
     0.34562212     0.64055300     0.21361333
     0.38709677     0.67741935     0.21361333
     0.42857143     0.71428571     0.21361333
     0.47004608     0.75115207     0.21361333
     0.51152074     0.78801843     0.21361333
     0.55299539     0.82488479     0.21361333
     0.59447005     0.86175115     0.21361333
     0.63594470     0.89861751     0.21361333
     0.67741935     0.93548387     0.21361333
     0.71889401     0.97235023     0.21361333
     0.00921659     0.23041475     0.21361333
     0.05069124     0.26728111     0.21361333
     0.09216590     0.30414747     0.21361333
     0.13364055     0.34101382     0.21361333
     0.17511521     0.37788018     0.21361333
     0.21658986     0.41474654     0.21361333
     0.25806452     0.45161290     0.21361333
     0.29953917     0.48847926     0.21361333
     0.34101382     0.52534562     0.21361333
     0.38248848     0.56221198     0.21361333
     0.42396313     0.59907834     0.21361333
     0.46543779     0.63594470     0.21361333
     0.50691244     0.67281106     0.21361333
     0.54838710     0.70967742     0.21361333
     0.58986175     0.74654378     0.21361333
     0.63133641     0.78341014     0.21361333
     0.67281106     0.82027650     0.21361333
     0.71428571     0.85714286     0.21361333
     0.75576037     0.89400922     0.21361333
     0.79723502     0.93087558     0.21361333
     0.83870968     0.96774194     0.21361333
     0.00460829     0.11520737     0.21361333
     0.04608295     0.15207373     0.21361333
     0.08755760     0.18894009     0.21361333
     0.12903226     0.22580645     0.21361333
     0.17050691     0.26267281     0.21361333
     0.21198157     0.29953917     0.21361333
     0.25345622     0.33640553     0.21361333
     0.29493088     0.37327189     0.21361333
     0.33640553     0.41013825     0.21361333
     0.37788018     0.44700461     0.21361333
     0.41935484     0.48387097     0.21361333
     0.46082949     0.52073733     0.21361333
     0.50230415     0.55760369     0.21361333
     0.54377880     0.59447005     0.21361333
     0.58525346     0.63133641     0.21361333
     0.62672811     0.66820276     0.21361333
     0.66820276     0.70506912     0.21361333
     0.70967742     0.74193548     0.21361333
     0.75115207     0.77880184     0.21361333
     0.79262673     0.81566820     0.21361333
     0.83410138     0.85253456     0.21361333
     0.87557604     0.88940092     0.21361333
     0.91705069     0.92626728     0.21361333
     0.95852535     0.96313364     0.21361333
     0.00000000     0.00000000     0.21361333
     0.04147465     0.03686636     0.21361333
     0.08294931     0.07373272     0.21361333
     0.12442396     0.11059908     0.21361333
     0.16589862     0.14746544     0.21361333
     0.20737327     0.18433180     0.21361333
     0.24884793     0.22119816     0.21361333
     0.29032258     0.25806452     0.21361333
     0.33179724     0.29493088     0.21361333
     0.37327189     0.33179724     0.21361333
     0.41474654     0.36866359     0.21361333
     0.45622120     0.40552995     0.21361333
     0.49769585     0.44239631     0.21361333
     0.53917051     0.47926267     0.21361333
     0.58064516     0.51612903     0.21361333
     0.62211982     0.55299539     0.21361333
     0.66359447     0.58986175     0.21361333
     0.70506912     0.62672811     0.21361333
     0.74654378     0.66359447     0.21361333
     0.78801843     0.70046083     0.21361333
     0.82949309     0.73732719     0.21361333
     0.87096774     0.77419355     0.21361333
     0.91244240     0.81105991     0.21361333
     0.95391705     0.84792627     0.21361333
     0.99539171     0.88479263     0.21361333
     0.16129032     0.03225806     0.21361333
     0.20276498     0.06912442     0.21361333
     0.24423963     0.10599078     0.21361333
     0.28571429     0.14285714     0.21361333
     0.32718894     0.17972350     0.21361333
     0.36866359     0.21658986     0.21361333
     0.41013825     0.25345622     0.21361333
     0.45161290     0.29032258     0.21361333
     0.49308756     0.32718894     0.21361333
     0.53456221     0.36405530     0.21361333
     0.57603687     0.40092166     0.21361333
     0.61751152     0.43778802     0.21361333
     0.65898618     0.47465438     0.21361333
     0.70046083     0.51152074     0.21361333
     0.74193548     0.54838710     0.21361333
     0.78341014     0.58525346     0.21361333
     0.82488479     0.62211982     0.21361333
     0.86635945     0.65898618     0.21361333
     0.90783410     0.69585253     0.21361333
     0.94930876     0.73271889     0.21361333
     0.99078341     0.76958525     0.21361333
     0.28110599     0.02764977     0.21361333
     0.32258065     0.06451613     0.21361333
     0.36405530     0.10138249     0.21361333
     0.40552995     0.13824885     0.21361333
     0.44700461     0.17511521     0.21361333
     0.48847926     0.21198157     0.21361333
     0.52995392     0.24884793     0.21361333
     0.57142857     0.28571429     0.21361333
     0.61290323     0.32258065     0.21361333
     0.65437788     0.35944700     0.21361333
     0.69585253     0.39631336     0.21361333
     0.73732719     0.43317972     0.21361333
     0.77880184     0.47004608     0.21361333
     0.82027650     0.50691244     0.21361333
     0.86175115     0.54377880     0.21361333
     0.90322581     0.58064516     0.21361333
     0.94470046     0.61751152     0.21361333
     0.98617512     0.65437788     0.21361333
     0.40092166     0.02304147     0.21361333
     0.44239631     0.05990783     0.21361333
     0.48387097     0.09677419     0.21361333
     0.52534562     0.13364055     0.21361333
     0.56682028     0.17050691     0.21361333
     0.60829493     0.20737327     0.21361333
     0.64976959     0.24423963     0.21361333
     0.69124424     0.28110599     0.21361333
     0.73271889     0.31797235     0.21361333
     0.77419355     0.35483871     0.21361333
     0.81566820     0.39170507     0.21361333
     0.85714286     0.42857143     0.21361333
     0.89861751     0.46543779     0.21361333
     0.94009217     0.50230415     0.21361333
     0.98156682     0.53917051     0.21361333
     0.52073733     0.01843318     0.21361333
     0.56221198     0.05529954     0.21361333
     0.60368664     0.09216590     0.21361333
     0.64516129     0.12903226     0.21361333
     0.68663594     0.16589862     0.21361333
     0.72811060     0.20276498     0.21361333
     0.76958525     0.23963134     0.21361333
     0.81105991     0.27649770     0.21361333
     0.85253456     0.31336406     0.21361333
     0.89400922     0.35023041     0.21361333
     0.93548387     0.38709677     0.21361333
     0.97695853     0.42396313     0.21361333
     0.64055300     0.01382488     0.21361333
     0.68202765     0.05069124     0.21361333
     0.72350230     0.08755760     0.21361333
     0.76497696     0.12442396     0.21361333
     0.80645161     0.16129032     0.21361333
     0.84792627     0.19815668     0.21361333
     0.88940092     0.23502304     0.21361333
     0.93087558     0.27188940     0.21361333
     0.97235023     0.30875576     0.21361333
     0.76036866     0.00921659     0.21361333
     0.80184332     0.04608295     0.21361333
     0.84331797     0.08294931     0.21361333
     0.88479263     0.11981567     0.21361333
     0.92626728     0.15668203     0.21361333