Generated by Twist2D
1.0
      105.7584984757        59.6397046004         0.0000000000
      -14.7360861959        26.1313559470         0.0000000000
       52.8792492379        29.8198523002       105.1490169878
    C
 9748
Direct
     0.000410340         0.100000000         0.964710710
     0.011899880         0.100000000         0.976610590
     0.023389410         0.100000000         0.988510460
     0.000820680         0.100000000         0.929421420
     0.012310220         0.100000000         0.941321300
     0.023799750         0.100000000         0.953221170
     0.035289290         0.100000000         0.965121050
     0.046778830         0.100000000         0.977020930
     0.058268360         0.100000000         0.988920800
     0.001231020         0.100000000         0.894132130
     0.012720560         0.100000000         0.906032010
     0.024210090         0.100000000         0.917931880
     0.035699630         0.100000000         0.929831760
     0.047189170         0.100000000         0.941731640
     0.058678700         0.100000000         0.953631510
     0.070168240         0.100000000         0.965531390
     0.081657780         0.100000000         0.977431270
     0.093147310         0.100000000         0.989331140
     0.001641360         0.100000000         0.858842840
     0.013130900         0.100000000         0.870742720
     0.024620430         0.100000000         0.882642590
     0.036109970         0.100000000         0.894542470
     0.047599510         0.100000000         0.906442350
     0.059089040         0.100000000         0.918342220
     0.070578580         0.100000000         0.930242100
     0.082068120         0.100000000         0.942141980
     0.093557650         0.100000000         0.954041850
     0.105047190         0.100000000         0.965941730
     0.116536730         0.100000000         0.977841610
     0.128026260         0.100000000         0.989741490
     0.002051700         0.100000000         0.823553550
     0.013541240         0.100000000         0.835453430
     0.025030780         0.100000000         0.847353300
     0.036520310         0.100000000         0.859253180
     0.048009850         0.100000000         0.871153060
     0.059499380         0.100000000         0.883052930
     0.070988920         0.100000000         0.894952810
     0.082478460         0.100000000         0.906852690
     0.093967990         0.100000000         0.918752560
     0.105457530         0.100000000         0.930652440
     0.116947070         0.100000000         0.942552320
     0.128436600         0.100000000         0.954452200
     0.139926140         0.100000000         0.966352070
     0.151415680         0.100000000         0.978251950
     0.162905210         0.100000000         0.990151830
     0.002462040         0.100000000         0.788264260
     0.013951580         0.100000000         0.800164140
     0.025441120         0.100000000         0.812064010
     0.036930650         0.100000000         0.823963890
     0.048420190         0.100000000         0.835863770
     0.059909730         0.100000000         0.847763640
     0.071399260         0.100000000         0.859663520
     0.082888800         0.100000000         0.871563400
     0.094378330         0.100000000         0.883463270
     0.105867870         0.100000000         0.895363150
     0.117357410         0.100000000         0.907263030
     0.128846940         0.100000000         0.919162910
     0.140336480         0.100000000         0.931062780
     0.151826020         0.100000000         0.942962660
     0.163315550         0.100000000         0.954862540
     0.174805090         0.100000000         0.966762410
     0.186294620         0.100000000         0.978662290
     0.197784160         0.100000000         0.990562170
     0.002872380         0.100000000         0.752974970
     0.014361920         0.100000000         0.764874850
     0.025851460         0.100000000         0.776774720
     0.037340990         0.100000000         0.788674600
     0.048830530         0.100000000         0.800574480
     0.060320070         0.100000000         0.812474350
     0.071809600         0.100000000         0.824374230
     0.083299140         0.100000000         0.836274110
     0.094788670         0.100000000         0.848173980
     0.106278210         0.100000000         0.860073860
     0.117767750         0.100000000         0.871973740
     0.129257280         0.100000000         0.883873620
     0.140746820         0.100000000         0.895773490
     0.152236360         0.100000000         0.907673370
     0.163725890         0.100000000         0.919573250
     0.175215430         0.100000000         0.931473120
     0.186704970         0.100000000         0.943373000
     0.198194500         0.100000000         0.955272880
     0.209684040         0.100000000         0.967172750
     0.221173570         0.100000000         0.979072630
     0.232663110         0.100000000         0.990972510
     0.003282720         0.100000000         0.717685680
     0.014772260         0.100000000         0.729585560
     0.026261800         0.100000000         0.741485430
     0.037751330         0.100000000         0.753385310
     0.049240870         0.100000000         0.765285190
     0.060730410         0.100000000         0.777185060
     0.072219940         0.100000000         0.789084940
     0.083709480         0.100000000         0.800984820
     0.095199020         0.100000000         0.812884690
     0.106688550         0.100000000         0.824784570
     0.118178090         0.100000000         0.836684450
     0.129667620         0.100000000         0.848584320
     0.141157160         0.100000000         0.860484200
     0.152646700         0.100000000         0.872384080
     0.164136230         0.100000000         0.884283960
     0.175625770         0.100000000         0.896183830
     0.187115310         0.100000000         0.908083710
     0.198604840         0.100000000         0.919983590
     0.210094380         0.100000000         0.931883460
     0.221583910         0.100000000         0.943783340
     0.233073450         0.100000000         0.955683220
     0.244562990         0.100000000         0.967583090
     0.256052520         0.100000000         0.979482970
     0.267542060         0.100000000         0.991382850
     0.003693070         0.100000000         0.682396390
     0.015182600         0.100000000         0.694296270
     0.026672140         0.100000000         0.706196140
     0.038161670         0.100000000         0.718096020
     0.049651210         0.100000000         0.729995900
     0.061140750         0.100000000         0.741895770
     0.072630280         0.100000000         0.753795650
     0.084119820         0.100000000         0.765695530
     0.095609360         0.100000000         0.777595400
     0.107098890         0.100000000         0.789495280
     0.118588430         0.100000000         0.801395160
     0.130077960         0.100000000         0.813295030
     0.141567500         0.100000000         0.825194910
     0.153057040         0.100000000         0.837094790
     0.164546570         0.100000000         0.848994670
     0.176036110         0.100000000         0.860894540
     0.187525650         0.100000000         0.872794420
     0.199015180         0.100000000         0.884694300
     0.210504720         0.100000000         0.896594170
     0.221994260         0.100000000         0.908494050
     0.233483790         0.100000000         0.920393930
     0.244973330         0.100000000         0.932293800
     0.256462860         0.100000000         0.944193680
     0.267952400         0.100000000         0.956093560
     0.279441940         0.100000000         0.967993430
     0.290931470         0.100000000         0.979893310
     0.302421010         0.100000000         0.991793190
     0.004103410         0.100000000         0.647107100
     0.015592940         0.100000000         0.659006980
     0.027082480         0.100000000         0.670906850
     0.038572010         0.100000000         0.682806730
     0.050061550         0.100000000         0.694706610
     0.061551090         0.100000000         0.706606480
     0.073040620         0.100000000         0.718506360
     0.084530160         0.100000000         0.730406240
     0.096019700         0.100000000         0.742306110
     0.107509230         0.100000000         0.754205990
     0.118998770         0.100000000         0.766105870
     0.130488310         0.100000000         0.778005740
     0.141977840         0.100000000         0.789905620
     0.153467380         0.100000000         0.801805500
     0.164956910         0.100000000         0.813705380
     0.176446450         0.100000000         0.825605250
     0.187935990         0.100000000         0.837505130
     0.199425520         0.100000000         0.849405010
     0.210915060         0.100000000         0.861304880
     0.222404600         0.100000000         0.873204760
     0.233894130         0.100000000         0.885104640
     0.245383670         0.100000000         0.897004510
     0.256873200         0.100000000         0.908904390
     0.268362740         0.100000000         0.920804270
     0.279852280         0.100000000         0.932704140
     0.291341810         0.100000000         0.944604020
     0.302831350         0.100000000         0.956503900
     0.314320890         0.100000000         0.968403780
     0.325810420         0.100000000         0.980303650
     0.337299960         0.100000000         0.992203530
     0.004513750         0.100000000         0.611817810
     0.016003280         0.100000000         0.623717690
     0.027492820         0.100000000         0.635617560
     0.038982360         0.100000000         0.647517440
     0.050471890         0.100000000         0.659417320
     0.061961430         0.100000000         0.671317190
     0.073450960         0.100000000         0.683217070
     0.084940500         0.100000000         0.695116950
     0.096430040         0.100000000         0.707016820
     0.107919570         0.100000000         0.718916700
     0.119409110         0.100000000         0.730816580
     0.130898650         0.100000000         0.742716450
     0.142388180         0.100000000         0.754616330
     0.153877720         0.100000000         0.766516210
     0.165367250         0.100000000         0.778416090
     0.176856790         0.100000000         0.790315960
     0.188346330         0.100000000         0.802215840
     0.199835860         0.100000000         0.814115720
     0.211325400         0.100000000         0.826015590
     0.222814940         0.100000000         0.837915470
     0.234304470         0.100000000         0.849815350
     0.245794010         0.100000000         0.861715220
     0.257283550         0.100000000         0.873615100
     0.268773080         0.100000000         0.885514980
     0.280262620         0.100000000         0.897414850
     0.291752150         0.100000000         0.909314730
     0.303241690         0.100000000         0.921214610
     0.314731230         0.100000000         0.933114490
     0.326220760         0.100000000         0.945014360
     0.337710300         0.100000000         0.956914240
     0.349199840         0.100000000         0.968814120
     0.360689370         0.100000000         0.980713990
     0.372178910         0.100000000         0.992613870
     0.004924090         0.100000000         0.576528520
     0.016413620         0.100000000         0.588428400
     0.027903160         0.100000000         0.600328270
     0.039392700         0.100000000         0.612228150
     0.050882230         0.100000000         0.624128030
     0.062371770         0.100000000         0.636027900
     0.073861300         0.100000000         0.647927780
     0.085350840         0.100000000         0.659827660
     0.096840380         0.100000000         0.671727530
     0.108329910         0.100000000         0.683627410
     0.119819450         0.100000000         0.695527290
     0.131308990         0.100000000         0.707427160
     0.142798520         0.100000000         0.719327040
     0.154288060         0.100000000         0.731226920
     0.165777600         0.100000000         0.743126800
     0.177267130         0.100000000         0.755026670
     0.188756670         0.100000000         0.766926550
     0.200246200         0.100000000         0.778826430
     0.211735740         0.100000000         0.790726300
     0.223225280         0.100000000         0.802626180
     0.234714810         0.100000000         0.814526060
     0.246204350         0.100000000         0.826425930
     0.257693890         0.100000000         0.838325810
     0.269183420         0.100000000         0.850225690
     0.280672960         0.100000000         0.862125560
     0.292162490         0.100000000         0.874025440
     0.303652030         0.100000000         0.885925320
     0.315141570         0.100000000         0.897825190
     0.326631100         0.100000000         0.909725070
     0.338120640         0.100000000         0.921624950
     0.349610180         0.100000000         0.933524830
     0.361099710         0.100000000         0.945424700
     0.372589250         0.100000000         0.957324580
     0.384078790         0.100000000         0.969224460
     0.395568320         0.100000000         0.981124330
     0.407057860         0.100000000         0.993024210
     0.005334430         0.100000000         0.541239230
     0.016823960         0.100000000         0.553139110
     0.028313500         0.100000000         0.565038980
     0.039803040         0.100000000         0.576938860
     0.051292570         0.100000000         0.588838740
     0.062782110         0.100000000         0.600738610
     0.074271650         0.100000000         0.612638490
     0.085761180         0.100000000         0.624538370
     0.097250720         0.100000000         0.636438240
     0.108740250         0.100000000         0.648338120
     0.120229790         0.100000000         0.660238000
     0.131719330         0.100000000         0.672137870
     0.143208860         0.100000000         0.684037750
     0.154698400         0.100000000         0.695937630
     0.166187940         0.100000000         0.707837510
     0.177677470         0.100000000         0.719737380
     0.189167010         0.100000000         0.731637260
     0.200656540         0.100000000         0.743537140
     0.212146080         0.100000000         0.755437010
     0.223635620         0.100000000         0.767336890
     0.235125150         0.100000000         0.779236770
     0.246614690         0.100000000         0.791136640
     0.258104230         0.100000000         0.803036520
     0.269593760         0.100000000         0.814936400
     0.281083300         0.100000000         0.826836270
     0.292572840         0.100000000         0.838736150
     0.304062370         0.100000000         0.850636030
     0.315551910         0.100000000         0.862535900
     0.327041440         0.100000000         0.874435780
     0.338530980         0.100000000         0.886335660
     0.350020520         0.100000000         0.898235540
     0.361510050         0.100000000         0.910135410
     0.372999590         0.100000000         0.922035290
     0.384489130         0.100000000         0.933935170
     0.395978660         0.100000000         0.945835040
     0.407468200         0.100000000         0.957734920
     0.418957730         0.100000000         0.969634800
     0.430447270         0.100000000         0.981534670
     0.441936810         0.100000000         0.993434550
     0.005744770         0.100000000         0.505949940
     0.017234300         0.100000000         0.517849820
     0.028723840         0.100000000         0.529749690
     0.040213380         0.100000000         0.541649570
     0.051702910         0.100000000         0.553549450
     0.063192450         0.100000000         0.565449320
     0.074681990         0.100000000         0.577349200
     0.086171520         0.100000000         0.589249080
     0.097661060         0.100000000         0.601148950
     0.109150590         0.100000000         0.613048830
     0.120640130         0.100000000         0.624948710
     0.132129670         0.100000000         0.636848580
     0.143619200         0.100000000         0.648748460
     0.155108740         0.100000000         0.660648340
     0.166598280         0.100000000         0.672548220
     0.178087810         0.100000000         0.684448090
     0.189577350         0.100000000         0.696347970
     0.201066890         0.100000000         0.708247850
     0.212556420         0.100000000         0.720147720
     0.224045960         0.100000000         0.732047600
     0.235535490         0.100000000         0.743947480
     0.247025030         0.100000000         0.755847350
     0.258514570         0.100000000         0.767747230
     0.270004100         0.100000000         0.779647110
     0.281493640         0.100000000         0.791546980
     0.292983180         0.100000000         0.803446860
     0.304472710         0.100000000         0.815346740
     0.315962250         0.100000000         0.827246610
     0.327451780         0.100000000         0.839146490
     0.338941320         0.100000000         0.851046370
     0.350430860         0.100000000         0.862946250
     0.361920390         0.100000000         0.874846120
     0.373409930         0.100000000         0.886746000
     0.384899470         0.100000000         0.898645880
     0.396389000         0.100000000         0.910545750
     0.407878540         0.100000000         0.922445630
     0.419368080         0.100000000         0.934345510
     0.430857610         0.100000000         0.946245380
     0.442347150         0.100000000         0.958145260
     0.453836680         0.100000000         0.970045140
     0.465326220         0.100000000         0.981945010
     0.476815760         0.100000000         0.993844890
     0.006155110         0.100000000         0.470660650
     0.017644650         0.100000000         0.482560530
     0.029134180         0.100000000         0.494460400
     0.040623720         0.100000000         0.506360280
     0.052113250         0.100000000         0.518260160
     0.063602790         0.100000000         0.530160030
     0.075092330         0.100000000         0.542059910
     0.086581860         0.100000000         0.553959790
     0.098071400         0.100000000         0.565859660
     0.109560940         0.100000000         0.577759540
     0.121050470         0.100000000         0.589659420
     0.132540010         0.100000000         0.601559290
     0.144029540         0.100000000         0.613459170
     0.155519080         0.100000000         0.625359050
     0.167008620         0.100000000         0.637258920
     0.178498150         0.100000000         0.649158800
     0.189987690         0.100000000         0.661058680
     0.201477230         0.100000000         0.672958560
     0.212966760         0.100000000         0.684858430
     0.224456300         0.100000000         0.696758310
     0.235945840         0.100000000         0.708658190
     0.247435370         0.100000000         0.720558060
     0.258924910         0.100000000         0.732457940
     0.270414440         0.100000000         0.744357820
     0.281903980         0.100000000         0.756257690
     0.293393520         0.100000000         0.768157570
     0.304883050         0.100000000         0.780057450
     0.316372590         0.100000000         0.791957320
     0.327862130         0.100000000         0.803857200
     0.339351660         0.100000000         0.815757080
     0.350841200         0.100000000         0.827656960
     0.362330730         0.100000000         0.839556830
     0.373820270         0.100000000         0.851456710
     0.385309810         0.100000000         0.863356590
     0.396799340         0.100000000         0.875256460
     0.408288880         0.100000000         0.887156340
     0.419778420         0.100000000         0.899056220
     0.431267950         0.100000000         0.910956090
     0.442757490         0.100000000         0.922855970
     0.454247030         0.100000000         0.934755850
     0.465736560         0.100000000         0.946655720
     0.477226100         0.100000000         0.958555600
     0.488715630         0.100000000         0.970455480
     0.500205170         0.100000000         0.982355350
     0.511694710         0.100000000         0.994255230
     0.006565450         0.100000000         0.435371360
     0.018054990         0.100000000         0.447271240
     0.029544520         0.100000000         0.459171110
     0.041034060         0.100000000         0.471070990
     0.052523590         0.100000000         0.482970870
     0.064013130         0.100000000         0.494870740
     0.075502670         0.100000000         0.506770620
     0.086992200         0.100000000         0.518670500
     0.098481740         0.100000000         0.530570370
     0.109971280         0.100000000         0.542470250
     0.121460810         0.100000000         0.554370130
     0.132950350         0.100000000         0.566270000
     0.144439890         0.100000000         0.578169880
     0.155929420         0.100000000         0.590069760
     0.167418960         0.100000000         0.601969630
     0.178908490         0.100000000         0.613869510
     0.190398030         0.100000000         0.625769390
     0.201887570         0.100000000         0.637669270
     0.213377100         0.100000000         0.649569140
     0.224866640         0.100000000         0.661469020
     0.236356180         0.100000000         0.673368900
     0.247845710         0.100000000         0.685268770
     0.259335250         0.100000000         0.697168650
     0.270824780         0.100000000         0.709068530
     0.282314320         0.100000000         0.720968400
     0.293803860         0.100000000         0.732868280
     0.305293390         0.100000000         0.744768160
     0.316782930         0.100000000         0.756668030
     0.328272470         0.100000000         0.768567910
     0.339762000         0.100000000         0.780467790
     0.351251540         0.100000000         0.792367670
     0.362741080         0.100000000         0.804267540
     0.374230610         0.100000000         0.816167420
     0.385720150         0.100000000         0.828067300
     0.397209680         0.100000000         0.839967170
     0.408699220         0.100000000         0.851867050
     0.420188760         0.100000000         0.863766930
     0.431678290         0.100000000         0.875666800
     0.443167830         0.100000000         0.887566680
     0.454657370         0.100000000         0.899466560
     0.466146900         0.100000000         0.911366430
     0.477636440         0.100000000         0.923266310
     0.489125970         0.100000000         0.935166190
     0.500615510         0.100000000         0.947066060
     0.512105050         0.100000000         0.958965940
     0.523594580         0.100000000         0.970865820
     0.535084120         0.100000000         0.982765700
     0.546573660         0.100000000         0.994665570
     0.006975790         0.100000000         0.400082070
     0.018465330         0.100000000         0.411981950
     0.029954860         0.100000000         0.423881820
     0.041444400         0.100000000         0.435781700
     0.052933940         0.100000000         0.447681580
     0.064423470         0.100000000         0.459581450
     0.075913010         0.100000000         0.471481330
     0.087402540         0.100000000         0.483381210
     0.098892080         0.100000000         0.495281080
     0.110381620         0.100000000         0.507180960
     0.121871150         0.100000000         0.519080840
     0.133360690         0.100000000         0.530980710
     0.144850230         0.100000000         0.542880590
     0.156339760         0.100000000         0.554780470
     0.167829300         0.100000000         0.566680340
     0.179318830         0.100000000         0.578580220
     0.190808370         0.100000000         0.590480100
     0.202297910         0.100000000         0.602379980
     0.213787440         0.100000000         0.614279850
     0.225276980         0.100000000         0.626179730
     0.236766520         0.100000000         0.638079610
     0.248256050         0.100000000         0.649979480
     0.259745590         0.100000000         0.661879360
     0.271235130         0.100000000         0.673779240
     0.282724660         0.100000000         0.685679110
     0.294214200         0.100000000         0.697578990
     0.305703730         0.100000000         0.709478870
     0.317193270         0.100000000         0.721378740
     0.328682810         0.100000000         0.733278620
     0.340172340         0.100000000         0.745178500
     0.351661880         0.100000000         0.757078380
     0.363151420         0.100000000         0.768978250
     0.374640950         0.100000000         0.780878130
     0.386130490         0.100000000         0.792778010
     0.397620020         0.100000000         0.804677880
     0.409109560         0.100000000         0.816577760
     0.420599100         0.100000000         0.828477640
     0.432088630         0.100000000         0.840377510
     0.443578170         0.100000000         0.852277390
     0.455067710         0.100000000         0.864177270
     0.466557240         0.100000000         0.876077140
     0.478046780         0.100000000         0.887977020
     0.489536320         0.100000000         0.899876900
     0.501025850         0.100000000         0.911776770
     0.512515390         0.100000000         0.923676650
     0.524004920         0.100000000         0.935576530
     0.535494460         0.100000000         0.947476410
     0.546984000         0.100000000         0.959376280
     0.558473530         0.100000000         0.971276160
     0.569963070         0.100000000         0.983176040
     0.581452610         0.100000000         0.995075910
     0.007386130         0.100000000         0.364792780
     0.018875670         0.100000000         0.376692650
     0.030365200         0.100000000         0.388592530
     0.041854740         0.100000000         0.400492410
     0.053344280         0.100000000         0.412392290
     0.064833810         0.100000000         0.424292160
     0.076323350         0.100000000         0.436192040
     0.087812880         0.100000000         0.448091920
     0.099302420         0.100000000         0.459991790
     0.110791960         0.100000000         0.471891670
     0.122281490         0.100000000         0.483791550
     0.133771030         0.100000000         0.495691420
     0.145260570         0.100000000         0.507591300
     0.156750100         0.100000000         0.519491180
     0.168239640         0.100000000         0.531391050
     0.179729180         0.100000000         0.543290930
     0.191218710         0.100000000         0.555190810
     0.202708250         0.100000000         0.567090690
     0.214197780         0.100000000         0.578990560
     0.225687320         0.100000000         0.590890440
     0.237176860         0.100000000         0.602790320
     0.248666390         0.100000000         0.614690190
     0.260155930         0.100000000         0.626590070
     0.271645470         0.100000000         0.638489950
     0.283135000         0.100000000         0.650389820
     0.294624540         0.100000000         0.662289700
     0.306114070         0.100000000         0.674189580
     0.317603610         0.100000000         0.686089450
     0.329093150         0.100000000         0.697989330
     0.340582680         0.100000000         0.709889210
     0.352072220         0.100000000         0.721789080
     0.363561760         0.100000000         0.733688960
     0.375051290         0.100000000         0.745588840
     0.386540830         0.100000000         0.757488720
     0.398030370         0.100000000         0.769388590
     0.409519900         0.100000000         0.781288470
     0.421009440         0.100000000         0.793188350
     0.432498970         0.100000000         0.805088220
     0.443988510         0.100000000         0.816988100
     0.455478050         0.100000000         0.828887980
     0.466967580         0.100000000         0.840787850
     0.478457120         0.100000000         0.852687730
     0.489946660         0.100000000         0.864587610
     0.501436190         0.100000000         0.876487480
     0.512925730         0.100000000         0.888387360
     0.524415260         0.100000000         0.900287240
     0.535904800         0.100000000         0.912187120
     0.547394340         0.100000000         0.924086990
     0.558883870         0.100000000         0.935986870
     0.570373410         0.100000000         0.947886750
     0.581862950         0.100000000         0.959786620
     0.593352480         0.100000000         0.971686500
     0.604842020         0.100000000         0.983586380
     0.616331560         0.100000000         0.995486250