Generated by Twist2D
1.0
      102.0692503386        57.5097161708         0.0000000000
      -14.7264613750        26.1367812741         0.0000000000
       51.0346251693        28.7548580854       101.4599649569
    C
 9076
Direct
     0.000440720         0.100000000         0.963420010
     0.012340240         0.100000000         0.975760250
     0.024239750         0.100000000         0.988100480
     0.000881450         0.100000000         0.926840020
     0.012780960         0.100000000         0.939180260
     0.024680480         0.100000000         0.951520490
     0.036579990         0.100000000         0.963860730
     0.048479510         0.100000000         0.976200970
     0.060379020         0.100000000         0.988541210
     0.001322170         0.100000000         0.890260030
     0.013221680         0.100000000         0.902600260
     0.025121200         0.100000000         0.914940500
     0.037020710         0.100000000         0.927280740
     0.048920230         0.100000000         0.939620980
     0.060819740         0.100000000         0.951961220
     0.072719260         0.100000000         0.964301450
     0.084618770         0.100000000         0.976641690
     0.096518290         0.100000000         0.988981930
     0.001762890         0.100000000         0.853680040
     0.013662410         0.100000000         0.866020270
     0.025561920         0.100000000         0.878360510
     0.037461440         0.100000000         0.890700750
     0.049360950         0.100000000         0.903040990
     0.061260470         0.100000000         0.915381230
     0.073159980         0.100000000         0.927721460
     0.085059500         0.100000000         0.940061700
     0.096959010         0.100000000         0.952401940
     0.108858530         0.100000000         0.964742180
     0.120758040         0.100000000         0.977082420
     0.132657560         0.100000000         0.989422650
     0.002203610         0.100000000         0.817100040
     0.014103130         0.100000000         0.829440280
     0.026002640         0.100000000         0.841780520
     0.037902160         0.100000000         0.854120760
     0.049801670         0.100000000         0.866461000
     0.061701190         0.100000000         0.878801230
     0.073600710         0.100000000         0.891141470
     0.085500220         0.100000000         0.903481710
     0.097399740         0.100000000         0.915821950
     0.109299250         0.100000000         0.928162190
     0.121198770         0.100000000         0.940502420
     0.133098280         0.100000000         0.952842660
     0.144997800         0.100000000         0.965182900
     0.156897310         0.100000000         0.977523140
     0.168796830         0.100000000         0.989863380
     0.002644340         0.100000000         0.780520050
     0.014543850         0.100000000         0.792860290
     0.026443370         0.100000000         0.805200530
     0.038342880         0.100000000         0.817540770
     0.050242400         0.100000000         0.829881000
     0.062141910         0.100000000         0.842221240
     0.074041430         0.100000000         0.854561480
     0.085940940         0.100000000         0.866901720
     0.097840460         0.100000000         0.879241960
     0.109739970         0.100000000         0.891582190
     0.121639490         0.100000000         0.903922430
     0.133539000         0.100000000         0.916262670
     0.145438520         0.100000000         0.928602910
     0.157338030         0.100000000         0.940943150
     0.169237550         0.100000000         0.953283380
     0.181137060         0.100000000         0.965623620
     0.193036580         0.100000000         0.977963860
     0.204936100         0.100000000         0.990304100
     0.003085060         0.100000000         0.743940060
     0.014984570         0.100000000         0.756280300
     0.026884090         0.100000000         0.768620540
     0.038783610         0.100000000         0.780960780
     0.050683120         0.100000000         0.793301010
     0.062582640         0.100000000         0.805641250
     0.074482150         0.100000000         0.817981490
     0.086381670         0.100000000         0.830321730
     0.098281180         0.100000000         0.842661970
     0.110180700         0.100000000         0.855002200
     0.122080210         0.100000000         0.867342440
     0.133979730         0.100000000         0.879682680
     0.145879240         0.100000000         0.892022920
     0.157778760         0.100000000         0.904363160
     0.169678270         0.100000000         0.916703390
     0.181577790         0.100000000         0.929043630
     0.193477300         0.100000000         0.941383870
     0.205376820         0.100000000         0.953724110
     0.217276330         0.100000000         0.966064350
     0.229175850         0.100000000         0.978404580
     0.241075360         0.100000000         0.990744820
     0.003525780         0.100000000         0.707360070
     0.015425300         0.100000000         0.719700310
     0.027324810         0.100000000         0.732040550
     0.039224330         0.100000000         0.744380780
     0.051123840         0.100000000         0.756721020
     0.063023360         0.100000000         0.769061260
     0.074922870         0.100000000         0.781401500
     0.086822390         0.100000000         0.793741740
     0.098721900         0.100000000         0.806081970
     0.110621420         0.100000000         0.818422210
     0.122520930         0.100000000         0.830762450
     0.134420450         0.100000000         0.843102690
     0.146319960         0.100000000         0.855442930
     0.158219480         0.100000000         0.867783160
     0.170119000         0.100000000         0.880123400
     0.182018510         0.100000000         0.892463640
     0.193918030         0.100000000         0.904803880
     0.205817540         0.100000000         0.917144120
     0.217717060         0.100000000         0.929484350
     0.229616570         0.100000000         0.941824590
     0.241516090         0.100000000         0.954164830
     0.253415600         0.100000000         0.966505070
     0.265315120         0.100000000         0.978845310
     0.277214630         0.100000000         0.991185540
     0.003966510         0.100000000         0.670780080
     0.015866020         0.100000000         0.683120320
     0.027765540         0.100000000         0.695460560
     0.039665050         0.100000000         0.707800790
     0.051564570         0.100000000         0.720141030
     0.063464080         0.100000000         0.732481270
     0.075363600         0.100000000         0.744821510
     0.087263110         0.100000000         0.757161750
     0.099162630         0.100000000         0.769501980
     0.111062140         0.100000000         0.781842220
     0.122961660         0.100000000         0.794182460
     0.134861170         0.100000000         0.806522700
     0.146760690         0.100000000         0.818862940
     0.158660200         0.100000000         0.831203170
     0.170559720         0.100000000         0.843543410
     0.182459230         0.100000000         0.855883650
     0.194358750         0.100000000         0.868223890
     0.206258260         0.100000000         0.880564130
     0.218157780         0.100000000         0.892904360
     0.230057290         0.100000000         0.905244600
     0.241956810         0.100000000         0.917584840
     0.253856320         0.100000000         0.929925080
     0.265755840         0.100000000         0.942265320
     0.277655350         0.100000000         0.954605550
     0.289554870         0.100000000         0.966945790
     0.301454390         0.100000000         0.979286030
     0.313353900         0.100000000         0.991626270
     0.004407230         0.100000000         0.634200090
     0.016306740         0.100000000         0.646540330
     0.028206260         0.100000000         0.658880560
     0.040105770         0.100000000         0.671220800
     0.052005290         0.100000000         0.683561040
     0.063904800         0.100000000         0.695901280
     0.075804320         0.100000000         0.708241520
     0.087703830         0.100000000         0.720581750
     0.099603350         0.100000000         0.732921990
     0.111502860         0.100000000         0.745262230
     0.123402380         0.100000000         0.757602470
     0.135301900         0.100000000         0.769942710
     0.147201410         0.100000000         0.782282940
     0.159100930         0.100000000         0.794623180
     0.171000440         0.100000000         0.806963420
     0.182899960         0.100000000         0.819303660
     0.194799470         0.100000000         0.831643900
     0.206698990         0.100000000         0.843984130
     0.218598500         0.100000000         0.856324370
     0.230498020         0.100000000         0.868664610
     0.242397530         0.100000000         0.881004850
     0.254297050         0.100000000         0.893345090
     0.266196560         0.100000000         0.905685320
     0.278096080         0.100000000         0.918025560
     0.289995590         0.100000000         0.930365800
     0.301895110         0.100000000         0.942706040
     0.313794620         0.100000000         0.955046280
     0.325694140         0.100000000         0.967386510
     0.337593650         0.100000000         0.979726750
     0.349493170         0.100000000         0.992066990
     0.004847950         0.100000000         0.597620100
     0.016747470         0.100000000         0.609960330
     0.028646980         0.100000000         0.622300570
     0.040546500         0.100000000         0.634640810
     0.052446010         0.100000000         0.646981050
     0.064345530         0.100000000         0.659321290
     0.076245040         0.100000000         0.671661520
     0.088144560         0.100000000         0.684001760
     0.100044070         0.100000000         0.696342000
     0.111943590         0.100000000         0.708682240
     0.123843100         0.100000000         0.721022480
     0.135742620         0.100000000         0.733362710
     0.147642130         0.100000000         0.745702950
     0.159541650         0.100000000         0.758043190
     0.171441160         0.100000000         0.770383430
     0.183340680         0.100000000         0.782723670
     0.195240190         0.100000000         0.795063900
     0.207139710         0.100000000         0.807404140
     0.219039220         0.100000000         0.819744380
     0.230938740         0.100000000         0.832084620
     0.242838250         0.100000000         0.844424860
     0.254737770         0.100000000         0.856765090
     0.266637290         0.100000000         0.869105330
     0.278536800         0.100000000         0.881445570
     0.290436320         0.100000000         0.893785810
     0.302335830         0.100000000         0.906126050
     0.314235350         0.100000000         0.918466280
     0.326134860         0.100000000         0.930806520
     0.338034380         0.100000000         0.943146760
     0.349933890         0.100000000         0.955487000
     0.361833410         0.100000000         0.967827240
     0.373732920         0.100000000         0.980167470
     0.385632440         0.100000000         0.992507710
     0.005288670         0.100000000         0.561040110
     0.017188190         0.100000000         0.573380340
     0.029087700         0.100000000         0.585720580
     0.040987220         0.100000000         0.598060820
     0.052886730         0.100000000         0.610401060
     0.064786250         0.100000000         0.622741300
     0.076685760         0.100000000         0.635081530
     0.088585280         0.100000000         0.647421770
     0.100484800         0.100000000         0.659762010
     0.112384310         0.100000000         0.672102250
     0.124283830         0.100000000         0.684442490
     0.136183340         0.100000000         0.696782720
     0.148082860         0.100000000         0.709122960
     0.159982370         0.100000000         0.721463200
     0.171881890         0.100000000         0.733803440
     0.183781400         0.100000000         0.746143680
     0.195680920         0.100000000         0.758483910
     0.207580430         0.100000000         0.770824150
     0.219479950         0.100000000         0.783164390
     0.231379460         0.100000000         0.795504630
     0.243278980         0.100000000         0.807844870
     0.255178490         0.100000000         0.820185100
     0.267078010         0.100000000         0.832525340
     0.278977520         0.100000000         0.844865580
     0.290877040         0.100000000         0.857205820
     0.302776550         0.100000000         0.869546060
     0.314676070         0.100000000         0.881886290
     0.326575580         0.100000000         0.894226530
     0.338475100         0.100000000         0.906566770
     0.350374610         0.100000000         0.918907010
     0.362274130         0.100000000         0.931247250
     0.374173640         0.100000000         0.943587480
     0.386073160         0.100000000         0.955927720
     0.397972680         0.100000000         0.968267960
     0.409872190         0.100000000         0.980608200
     0.421771710         0.100000000         0.992948440
     0.005729400         0.100000000         0.524460110
     0.017628910         0.100000000         0.536800350
     0.029528430         0.100000000         0.549140590
     0.041427940         0.100000000         0.561480830
     0.053327460         0.100000000         0.573821070
     0.065226970         0.100000000         0.586161300
     0.077126490         0.100000000         0.598501540
     0.089026000         0.100000000         0.610841780
     0.100925520         0.100000000         0.623182020
     0.112825030         0.100000000         0.635522260
     0.124724550         0.100000000         0.647862490
     0.136624060         0.100000000         0.660202730
     0.148523580         0.100000000         0.672542970
     0.160423090         0.100000000         0.684883210
     0.172322610         0.100000000         0.697223450
     0.184222120         0.100000000         0.709563680
     0.196121640         0.100000000         0.721903920
     0.208021150         0.100000000         0.734244160
     0.219920670         0.100000000         0.746584400
     0.231820190         0.100000000         0.758924640
     0.243719700         0.100000000         0.771264870
     0.255619220         0.100000000         0.783605110
     0.267518730         0.100000000         0.795945350
     0.279418250         0.100000000         0.808285590
     0.291317760         0.100000000         0.820625830
     0.303217280         0.100000000         0.832966060
     0.315116790         0.100000000         0.845306300
     0.327016310         0.100000000         0.857646540
     0.338915820         0.100000000         0.869986780
     0.350815340         0.100000000         0.882327020
     0.362714850         0.100000000         0.894667250
     0.374614370         0.100000000         0.907007490
     0.386513880         0.100000000         0.919347730
     0.398413400         0.100000000         0.931687970
     0.410312910         0.100000000         0.944028210
     0.422212430         0.100000000         0.956368440
     0.434111940         0.100000000         0.968708680
     0.446011460         0.100000000         0.981048920
     0.457910970         0.100000000         0.993389160
     0.006170120         0.100000000         0.487880120
     0.018069630         0.100000000         0.500220360
     0.029969150         0.100000000         0.512560600
     0.041868660         0.100000000         0.524900840
     0.053768180         0.100000000         0.537241080
     0.065667700         0.100000000         0.549581310
     0.077567210         0.100000000         0.561921550
     0.089466730         0.100000000         0.574261790
     0.101366240         0.100000000         0.586602030
     0.113265760         0.100000000         0.598942270
     0.125165270         0.100000000         0.611282500
     0.137064790         0.100000000         0.623622740
     0.148964300         0.100000000         0.635962980
     0.160863820         0.100000000         0.648303220
     0.172763330         0.100000000         0.660643460
     0.184662850         0.100000000         0.672983690
     0.196562360         0.100000000         0.685323930
     0.208461880         0.100000000         0.697664170
     0.220361390         0.100000000         0.710004410
     0.232260910         0.100000000         0.722344650
     0.244160420         0.100000000         0.734684880
     0.256059940         0.100000000         0.747025120
     0.267959450         0.100000000         0.759365360
     0.279858970         0.100000000         0.771705600
     0.291758480         0.100000000         0.784045840
     0.303658000         0.100000000         0.796386070
     0.315557510         0.100000000         0.808726310
     0.327457030         0.100000000         0.821066550
     0.339356540         0.100000000         0.833406790
     0.351256060         0.100000000         0.845747030
     0.363155580         0.100000000         0.858087260
     0.375055090         0.100000000         0.870427500
     0.386954610         0.100000000         0.882767740
     0.398854120         0.100000000         0.895107980
     0.410753640         0.100000000         0.907448220
     0.422653150         0.100000000         0.919788450
     0.434552670         0.100000000         0.932128690
     0.446452180         0.100000000         0.944468930
     0.458351700         0.100000000         0.956809170
     0.470251210         0.100000000         0.969149410
     0.482150730         0.100000000         0.981489640
     0.494050240         0.100000000         0.993829880
     0.006610840         0.100000000         0.451300130
     0.018510360         0.100000000         0.463640370
     0.030409870         0.100000000         0.475980610
     0.042309390         0.100000000         0.488320850
     0.054208900         0.100000000         0.500661080
     0.066108420         0.100000000         0.513001320
     0.078007930         0.100000000         0.525341560
     0.089907450         0.100000000         0.537681800
     0.101806960         0.100000000         0.550022040
     0.113706480         0.100000000         0.562362270
     0.125605990         0.100000000         0.574702510
     0.137505510         0.100000000         0.587042750
     0.149405020         0.100000000         0.599382990
     0.161304540         0.100000000         0.611723230
     0.173204050         0.100000000         0.624063460
     0.185103570         0.100000000         0.636403700
     0.197003090         0.100000000         0.648743940
     0.208902600         0.100000000         0.661084180
     0.220802120         0.100000000         0.673424420
     0.232701630         0.100000000         0.685764650
     0.244601150         0.100000000         0.698104890
     0.256500660         0.100000000         0.710445130
     0.268400180         0.100000000         0.722785370
     0.280299690         0.100000000         0.735125610
     0.292199210         0.100000000         0.747465840
     0.304098720         0.100000000         0.759806080
     0.315998240         0.100000000         0.772146320
     0.327897750         0.100000000         0.784486560
     0.339797270         0.100000000         0.796826800
     0.351696780         0.100000000         0.809167030
     0.363596300         0.100000000         0.821507270
     0.375495810         0.100000000         0.833847510
     0.387395330         0.100000000         0.846187750
     0.399294840         0.100000000         0.858527990
     0.411194360         0.100000000         0.870868220
     0.423093870         0.100000000         0.883208460
     0.434993390         0.100000000         0.895548700
     0.446892900         0.100000000         0.907888940
     0.458792420         0.100000000         0.920229180
     0.470691930         0.100000000         0.932569410
     0.482591450         0.100000000         0.944909650
     0.494490970         0.100000000         0.957249890
     0.506390480         0.100000000         0.969590130
     0.518290000         0.100000000         0.981930370
     0.530189510         0.100000000         0.994270600
     0.007051560         0.100000000         0.414720140
     0.018951080         0.100000000         0.427060380
     0.030850590         0.100000000         0.439400620
     0.042750110         0.100000000         0.451740860
     0.054649630         0.100000000         0.464081090
     0.066549140         0.100000000         0.476421330
     0.078448660         0.100000000         0.488761570
     0.090348170         0.100000000         0.501101810
     0.102247690         0.100000000         0.513442040
     0.114147200         0.100000000         0.525782280
     0.126046720         0.100000000         0.538122520
     0.137946230         0.100000000         0.550462760
     0.149845750         0.100000000         0.562803000
     0.161745260         0.100000000         0.575143230
     0.173644780         0.100000000         0.587483470
     0.185544290         0.100000000         0.599823710
     0.197443810         0.100000000         0.612163950
     0.209343320         0.100000000         0.624504190
     0.221242840         0.100000000         0.636844420
     0.233142350         0.100000000         0.649184660
     0.245041870         0.100000000         0.661524900
     0.256941380         0.100000000         0.673865140
     0.268840900         0.100000000         0.686205380
     0.280740410         0.100000000         0.698545610
     0.292639930         0.100000000         0.710885850
     0.304539440         0.100000000         0.723226090
     0.316438960         0.100000000         0.735566330
     0.328338480         0.100000000         0.747906570
     0.340237990         0.100000000         0.760246800
     0.352137510         0.100000000         0.772587040
     0.364037020         0.100000000         0.784927280
     0.375936540         0.100000000         0.797267520
     0.387836050         0.100000000         0.809607760
     0.399735570         0.100000000         0.821947990
     0.411635080         0.100000000         0.834288230
     0.423534600         0.100000000         0.846628470
     0.435434110         0.100000000         0.858968710
     0.447333630         0.100000000         0.871308950
     0.459233140         0.100000000         0.883649180
     0.471132660         0.100000000         0.895989420
     0.483032170         0.100000000         0.908329660
     0.494931690         0.100000000         0.920669900
     0.506831200         0.100000000         0.933010140
     0.518730720         0.100000000         0.945350370
     0.530630230         0.100000000         0.957690610
     0.542529750         0.100000000         0.970030850
     0.554429260         0.100000000         0.982371090
     0.566328780         0.100000000         0.994711330
     0.007492290         0.100000000         0.378140150
     0.019391800         0.100000000         0.390480390
     0.031291320         0.100000000         0.402820630
     0.043190830         0.100000000         0.415160860
     0.055090350         0.100000000         0.427501100
     0.066989860         0.100000000         0.439841340
     0.078889380         0.100000000         0.452181580
     0.090788890         0.100000000         0.464521820
     0.102688410         0.100000000         0.476862050
     0.114587920         0.100000000         0.489202290
     0.126487440         0.100000000         0.501542530
     0.138386950         0.100000000         0.513882770
     0.150286470         0.100000000         0.526223010
     0.162185990         0.100000000         0.538563240
     0.174085500         0.100000000         0.550903480
     0.185985020         0.100000000         0.563243720
     0.197884530         0.100000000         0.575583960
     0.209784050         0.100000000         0.587924200
     0.221683560         0.100000000         0.600264430
     0.233583080         0.100000000         0.612604670
     0.245482590         0.100000000         0.624944910
     0.257382110         0.100000000         0.637285150
     0.269281620         0.100000000         0.649625390
     0.281181140         0.100000000         0.661965620
     0.293080650         0.100000000         0.674305860
     0.304980170         0.100000000         0.686646100
     0.316879680         0.100000000         0.698986340
     0.328779200         0.100000000         0.711326580
     0.340678710         0.100000000         0.723666810
     0.352578230         0.100000000         0.736007050
     0.364477740         0.100000000         0.748347290
     0.376377260         0.100000000         0.760687530
     0.388276770         0.100000000         0.773027770
     0.400176290         0.100000000         0.785368000
     0.412075800         0.100000000         0.797708240
     0.423975320         0.100000000         0.810048480
     0.435874830         0.100000000         0.822388720
     0.447774350         0.100000000         0.834728960
     0.459673870         0.100000000         0.847069190
     0.471573380         0.100000000         0.859409430
     0.483472900         0.100000000         0.871749670
     0.495372410         0.100000000         0.884089910
     0.507271930         0.100000000         0.896430150
     0.519171440         0.100000000         0.908770380
     0.531070960         0.100000000         0.921110620
     0.542970470         0.100000000         0.933450860
     0.554869990         0.100000000         0.945791100
     0.566769500         0.100000000         0.958131340
     0.578669020         0.100000000         0.970471570
     0.590568530         0.100000000         0.982811810
     0.602468050         0.100000000         0.995152050
     0.007933010         0.100000000         0.341560160
     0.019832530         0.100000000         0.353900400
     0.031732040         0.100000000         0.366240630
     0.043631560         0.100000000         0.378580870
     0.055531070         0.100000000         0.390921110
     0.067430590         0.100000000         0.403261350
     0.079330100         0.100000000         0.415601590
     0.091229620         0.100000000         0.427941820
     0.103129130         0.100000000         0.440282060
     0.115028650         0.100000000         0.452622300
     0.126928160         0.100000000         0.464962540
     0.138827680         0.100000000         0.477302780
     0.150727190         0.100000000         0.489643010
     0.162626710         0.100000000         0.501983250
     0.174526220         0.100000000         0.514323490
     0.186425740         0.100000000         0.526663730
     0.198325250         0.100000000         0.539003970
     0.210224770         0.100000000         0.551344200
     0.222124280         0.100000000         0.563684440
     0.234023800         0.100000000         0.576024680
     0.245923310         0.100000000         0.588364920
     0.257822830         0.100000000         0.600705160
     0.269722340         0.100000000         0.613045390
     0.281621860         0.100000000         0.625385630
     0.293521380         0.100000000         0.637725870
     0.305420890         0.100000000         0.650066110
     0.317320410         0.100000000         0.662406350
     0.329219920         0.100000000         0.674746580
     0.341119440         0.100000000         0.687086820
     0.353018950         0.100000000         0.699427060
     0.364918470         0.100000000         0.711767300
     0.376817980         0.100000000         0.724107540
     0.388717500         0.100000000         0.736447770
     0.400617010         0.100000000         0.748788010
     0.412516530         0.100000000         0.761128250
     0.424416040         0.100000000         0.773468490
     0.436315560         0.100000000         0.785808730
     0.448215070         0.100000000         0.798148960
     0.460114590         0.100000000         0.810489200
     0.472014100         0.100000000         0.822829440
     0.483913620         0.100000000         0.835169680
     0.495813130         0.100000000         0.847509920
     0.507712650         0.100000000         0.859850150
     0.519612160         0.100000000         0.872190390
     0.531511680         0.100000000         0.884530630
     0.543411190         0.100000000         0.896870870
     0.555310710         0.100000000         0.909211110
     0.567210220         0.100000000         0.921551340
     0.579109740         0.100000000         0.933891580
     0.591009260         0.100000000         0.946231820
     0.602908770         0.100000000         0.958572060
     0.614808290         0.100000000         0.970912300
     0.626707800         0.100000000         0.983252530
     0.638607320         0.100000000         0.995592770