Generated by Twist2D
1.0
       17.2164995944         8.5199577193         0.0000000000
      -13.3059828741        26.8877447874         0.0000000000
        8.6082497972         4.2599788596        16.6357492578
    C
  244
Direct
     0.016393440         0.100000000         0.770491800
     0.081967210         0.100000000         0.852459020
     0.147540980         0.100000000         0.934426230
     0.032786890         0.100000000         0.540983610
     0.098360660         0.100000000         0.622950820
     0.163934430         0.100000000         0.704918030
     0.229508200         0.100000000         0.786885250
     0.295081970         0.100000000         0.868852460
     0.360655740         0.100000000         0.950819670
     0.049180330         0.100000000         0.311475410
     0.114754100         0.100000000         0.393442620
     0.180327870         0.100000000         0.475409840
     0.245901640         0.100000000         0.557377050
     0.311475410         0.100000000         0.639344260
     0.377049180         0.100000000         0.721311480
     0.442622950         0.100000000         0.803278690
     0.508196720         0.100000000         0.885245900
     0.573770490         0.100000000         0.967213110
     0.000000000         0.100000000         0.000000000
     0.065573770         0.100000000         0.081967210
     0.131147540         0.100000000         0.163934430
     0.196721310         0.100000000         0.245901640
     0.262295080         0.100000000         0.327868850
     0.327868850         0.100000000         0.409836070
     0.393442620         0.100000000         0.491803280
     0.459016390         0.100000000         0.573770490
     0.524590160         0.100000000         0.655737700
     0.590163930         0.100000000         0.737704920
     0.655737700         0.100000000         0.819672130
     0.721311480         0.100000000         0.901639340
     0.786885250         0.100000000         0.983606560
     0.213114750         0.100000000         0.016393440
     0.278688520         0.100000000         0.098360660
     0.344262300         0.100000000         0.180327870
     0.409836070         0.100000000         0.262295080
     0.475409840         0.100000000         0.344262300
     0.540983610         0.100000000         0.426229510
     0.606557380         0.100000000         0.508196720
     0.672131150         0.100000000         0.590163930
     0.737704920         0.100000000         0.672131150
     0.803278690         0.100000000         0.754098360
     0.868852460         0.100000000         0.836065570
     0.934426230         0.100000000         0.918032790
     0.426229510         0.100000000         0.032786890
     0.491803280         0.100000000         0.114754100
     0.557377050         0.100000000         0.196721310
     0.622950820         0.100000000         0.278688520
     0.688524590         0.100000000         0.360655740
     0.754098360         0.100000000         0.442622950
     0.819672130         0.100000000         0.524590160
     0.885245900         0.100000000         0.606557380
     0.950819670         0.100000000         0.688524590
     0.639344260         0.100000000         0.049180330
     0.704918030         0.100000000         0.131147540
     0.770491800         0.100000000         0.213114750
     0.836065570         0.100000000         0.295081970
     0.901639340         0.100000000         0.377049180
     0.967213110         0.100000000         0.459016390
     0.852459020         0.100000000         0.065573770
     0.918032790         0.100000000         0.147540980
     0.983606560         0.100000000         0.229508200
     0.158469950         0.100000000         0.781420760
     0.224043720         0.100000000         0.863387970
     0.289617490         0.100000000         0.945355190
     0.174863390         0.100000000         0.551912560
     0.240437160         0.100000000         0.633879780
     0.306010930         0.100000000         0.715846990
     0.371584700         0.100000000         0.797814200
     0.437158470         0.100000000         0.879781420
     0.502732240         0.100000000         0.961748630
     0.191256830         0.100000000         0.322404370
     0.256830600         0.100000000         0.404371580
     0.322404370         0.100000000         0.486338790
     0.387978140         0.100000000         0.568306010
     0.453551910         0.100000000         0.650273220
     0.519125680         0.100000000         0.732240430
     0.584699450         0.100000000         0.814207650
     0.650273220         0.100000000         0.896174860
     0.715846990         0.100000000         0.978142070
     0.142076500         0.100000000         0.010928960
     0.207650270         0.100000000         0.092896170
     0.273224040         0.100000000         0.174863380
     0.338797810         0.100000000         0.256830600
     0.404371590         0.100000000         0.338797810
     0.469945360         0.100000000         0.420765020
     0.535519130         0.100000000         0.502732240
     0.601092900         0.100000000         0.584699450
     0.666666670         0.100000000         0.666666660
     0.732240440         0.100000000         0.748633880
     0.797814210         0.100000000         0.830601090
     0.863387980         0.100000000         0.912568300
     0.928961750         0.100000000         0.994535510
     0.355191260         0.100000000         0.027322400
     0.420765030         0.100000000         0.109289610
     0.486338800         0.100000000         0.191256830
     0.551912570         0.100000000         0.273224040
     0.617486340         0.100000000         0.355191250
     0.683060110         0.100000000         0.437158470
     0.748633880         0.100000000         0.519125680
     0.814207650         0.100000000         0.601092890
     0.879781420         0.100000000         0.683060100
     0.945355190         0.100000000         0.765027320
     0.010928960         0.100000000         0.846994530
     0.076502730         0.100000000         0.928961740
     0.568306010         0.100000000         0.043715840
     0.633879780         0.100000000         0.125683060
     0.699453550         0.100000000         0.207650270
     0.765027320         0.100000000         0.289617480
     0.830601090         0.100000000         0.371584690
     0.896174860         0.100000000         0.453551910
     0.961748630         0.100000000         0.535519120
     0.027322400         0.100000000         0.617486330
     0.092896180         0.100000000         0.699453550
     0.781420770         0.100000000         0.060109290
     0.846994540         0.100000000         0.142076500
     0.912568310         0.100000000         0.224043710
     0.978142080         0.100000000         0.306010920
     0.043715850         0.100000000         0.387978140
     0.109289620         0.100000000         0.469945350
     0.994535520         0.100000000         0.076502730
     0.060109290         0.100000000         0.158469940
     0.125683060         0.100000000         0.240437150
     0.065573770         0.213613330         0.852459020
     0.147540980         0.213613330         0.918032790
     0.229508200         0.213613330         0.983606560
     0.049180330         0.213613330         0.639344260
     0.131147540         0.213613330         0.704918030
     0.213114750         0.213613330         0.770491800
     0.295081970         0.213613330         0.836065570
     0.377049180         0.213613330         0.901639340
     0.459016390         0.213613330         0.967213110
     0.032786890         0.213613330         0.426229510
     0.114754100         0.213613330         0.491803280
     0.196721310         0.213613330         0.557377050
     0.278688520         0.213613330         0.622950820
     0.360655740         0.213613330         0.688524590
     0.442622950         0.213613330         0.754098360
     0.524590160         0.213613330         0.819672130
     0.606557380         0.213613330         0.885245900
     0.688524590         0.213613330         0.950819670
     0.016393440         0.213613330         0.213114750
     0.098360660         0.213613330         0.278688520
     0.180327870         0.213613330         0.344262300
     0.262295080         0.213613330         0.409836070
     0.344262300         0.213613330         0.475409840
     0.426229510         0.213613330         0.540983610
     0.508196720         0.213613330         0.606557380
     0.590163930         0.213613330         0.672131150
     0.672131150         0.213613330         0.737704920
     0.754098360         0.213613330         0.803278690
     0.836065570         0.213613330         0.868852460
     0.918032790         0.213613330         0.934426230
     0.000000000         0.213613330         0.000000000
     0.081967210         0.213613330         0.065573770
     0.163934430         0.213613330         0.131147540
     0.245901640         0.213613330         0.196721310
     0.327868850         0.213613330         0.262295080
     0.409836070         0.213613330         0.327868850
     0.491803280         0.213613330         0.393442620
     0.573770490         0.213613330         0.459016390
     0.655737700         0.213613330         0.524590160
     0.737704920         0.213613330         0.590163930
     0.819672130         0.213613330         0.655737700
     0.901639340         0.213613330         0.721311480
     0.983606560         0.213613330         0.786885250
     0.311475410         0.213613330         0.049180330
     0.393442620         0.213613330         0.114754100
     0.475409840         0.213613330         0.180327870
     0.557377050         0.213613330         0.245901640
     0.639344260         0.213613330         0.311475410
     0.721311480         0.213613330         0.377049180
     0.803278690         0.213613330         0.442622950
     0.885245900         0.213613330         0.508196720
     0.967213110         0.213613330         0.573770490
     0.540983610         0.213613330         0.032786890
     0.622950820         0.213613330         0.098360660
     0.704918030         0.213613330         0.163934430
     0.786885250         0.213613330         0.229508200
     0.868852460         0.213613330         0.295081970
     0.950819670         0.213613330         0.360655740
     0.770491800         0.213613330         0.016393440
     0.852459020         0.213613330         0.081967210
     0.934426230         0.213613330         0.147540980
     0.218579230         0.213613330         0.841530050
     0.300546450         0.213613330         0.907103820
     0.382513660         0.213613330         0.972677590
     0.202185790         0.213613330         0.628415300
     0.284153010         0.213613330         0.693989070
     0.366120220         0.213613330         0.759562840
     0.448087430         0.213613330         0.825136610
     0.530054640         0.213613330         0.890710380
     0.612021860         0.213613330         0.956284150
     0.185792350         0.213613330         0.415300540
     0.267759560         0.213613330         0.480874310
     0.349726780         0.213613330         0.546448080
     0.431693990         0.213613330         0.612021850
     0.513661200         0.213613330         0.677595620
     0.595628420         0.213613330         0.743169390
     0.677595630         0.213613330         0.808743170
     0.759562840         0.213613330         0.874316940
     0.841530050         0.213613330         0.939890710
     0.169398910         0.213613330         0.202185790
     0.251366120         0.213613330         0.267759560
     0.333333330         0.213613330         0.333333330
     0.415300550         0.213613330         0.398907100
     0.497267760         0.213613330         0.464480870
     0.579234970         0.213613330         0.530054640
     0.661202190         0.213613330         0.595628410
     0.743169400         0.213613330         0.661202180
     0.825136610         0.213613330         0.726775950
     0.907103820         0.213613330         0.792349720
     0.989071040         0.213613330         0.857923490
     0.071038250         0.213613330         0.923497260
     0.153005460         0.213613330         0.989071030
     0.234972680         0.213613330         0.054644800
     0.316939890         0.213613330         0.120218570
     0.398907100         0.213613330         0.185792350
     0.480874320         0.213613330         0.251366120
     0.562841530         0.213613330         0.316939890
     0.644808740         0.213613330         0.382513660
     0.726775960         0.213613330         0.448087430
     0.808743170         0.213613330         0.513661200
     0.890710380         0.213613330         0.579234970
     0.972677600         0.213613330         0.644808740
     0.054644810         0.213613330         0.710382510
     0.136612020         0.213613330         0.775956280
     0.464480870         0.213613330         0.038251360
     0.546448090         0.213613330         0.103825130
     0.628415300         0.213613330         0.169398900
     0.710382510         0.213613330         0.234972670
     0.792349730         0.213613330         0.300546440
     0.874316940         0.213613330         0.366120210
     0.956284150         0.213613330         0.431693980
     0.038251370         0.213613330         0.497267760
     0.120218580         0.213613330         0.562841530
     0.693989070         0.213613330         0.021857920
     0.775956280         0.213613330         0.087431690
     0.857923500         0.213613330         0.153005460
     0.939890710         0.213613330         0.218579230
     0.021857920         0.213613330         0.284153000
     0.103825140         0.213613330         0.349726770
     0.923497270         0.213613330         0.005464480
     0.005464480         0.213613330         0.071038250
     0.087431690         0.213613330         0.136612020
