Generated by Twist2D
1.0
       57.7982482267        31.9498412297         0.0000000000
      -14.5136121484        26.2555720258         0.0000000000
       28.8991274459        15.9749224571        57.1932875260
    C
 2884
Direct
     0.001386960         0.100000000         0.934812760
     0.022191400         0.100000000         0.957004160
     0.042995840         0.100000000         0.979195560
     0.002773930         0.100000000         0.869625520
     0.023578360         0.100000000         0.891816920
     0.044382800         0.100000000         0.914008320
     0.065187240         0.100000000         0.936199720
     0.085991680         0.100000000         0.958391120
     0.106796120         0.100000000         0.980582520
     0.004160890         0.100000000         0.804438280
     0.024965330         0.100000000         0.826629680
     0.045769760         0.100000000         0.848821080
     0.066574200         0.100000000         0.871012480
     0.087378640         0.100000000         0.893203880
     0.108183080         0.100000000         0.915395280
     0.128987520         0.100000000         0.937586690
     0.149791960         0.100000000         0.959778090
     0.170596390         0.100000000         0.981969490
     0.005547850         0.100000000         0.739251040
     0.026352290         0.100000000         0.761442440
     0.047156730         0.100000000         0.783633840
     0.067961170         0.100000000         0.805825240
     0.088765600         0.100000000         0.828016640
     0.109570040         0.100000000         0.850208040
     0.130374480         0.100000000         0.872399450
     0.151178920         0.100000000         0.894590850
     0.171983360         0.100000000         0.916782250
     0.192787790         0.100000000         0.938973650
     0.213592230         0.100000000         0.961165050
     0.234396670         0.100000000         0.983356450
     0.006934810         0.100000000         0.674063800
     0.027739250         0.100000000         0.696255200
     0.048543690         0.100000000         0.718446600
     0.069348130         0.100000000         0.740638000
     0.090152570         0.100000000         0.762829400
     0.110957000         0.100000000         0.785020800
     0.131761440         0.100000000         0.807212210
     0.152565880         0.100000000         0.829403610
     0.173370320         0.100000000         0.851595010
     0.194174760         0.100000000         0.873786410
     0.214979200         0.100000000         0.895977810
     0.235783630         0.100000000         0.918169210
     0.256588070         0.100000000         0.940360610
     0.277392510         0.100000000         0.962552010
     0.298196950         0.100000000         0.984743410
     0.008321780         0.100000000         0.608876560
     0.029126210         0.100000000         0.631067960
     0.049930650         0.100000000         0.653259360
     0.070735090         0.100000000         0.675450760
     0.091539530         0.100000000         0.697642160
     0.112343970         0.100000000         0.719833560
     0.133148400         0.100000000         0.742024970
     0.153952840         0.100000000         0.764216370
     0.174757280         0.100000000         0.786407770
     0.195561720         0.100000000         0.808599170
     0.216366160         0.100000000         0.830790570
     0.237170600         0.100000000         0.852981970
     0.257975030         0.100000000         0.875173370
     0.278779470         0.100000000         0.897364770
     0.299583910         0.100000000         0.919556170
     0.320388350         0.100000000         0.941747570
     0.341192790         0.100000000         0.963938970
     0.361997230         0.100000000         0.986130370
     0.009708740         0.100000000         0.543689320
     0.030513180         0.100000000         0.565880720
     0.051317610         0.100000000         0.588072120
     0.072122050         0.100000000         0.610263520
     0.092926490         0.100000000         0.632454920
     0.113730930         0.100000000         0.654646320
     0.134535370         0.100000000         0.676837730
     0.155339810         0.100000000         0.699029130
     0.176144240         0.100000000         0.721220530
     0.196948680         0.100000000         0.743411930
     0.217753120         0.100000000         0.765603330
     0.238557560         0.100000000         0.787794730
     0.259362000         0.100000000         0.809986130
     0.280166440         0.100000000         0.832177530
     0.300970870         0.100000000         0.854368930
     0.321775310         0.100000000         0.876560330
     0.342579750         0.100000000         0.898751730
     0.363384190         0.100000000         0.920943130
     0.384188630         0.100000000         0.943134540
     0.404993070         0.100000000         0.965325940
     0.425797500         0.100000000         0.987517340
     0.011095700         0.100000000         0.478502080
     0.031900140         0.100000000         0.500693480
     0.052704580         0.100000000         0.522884880
     0.073509020         0.100000000         0.545076280
     0.094313450         0.100000000         0.567267680
     0.115117890         0.100000000         0.589459080
     0.135922330         0.100000000         0.611650490
     0.156726770         0.100000000         0.633841890
     0.177531210         0.100000000         0.656033290
     0.198335640         0.100000000         0.678224690
     0.219140080         0.100000000         0.700416090
     0.239944520         0.100000000         0.722607490
     0.260748960         0.100000000         0.744798890
     0.281553400         0.100000000         0.766990290
     0.302357840         0.100000000         0.789181690
     0.323162270         0.100000000         0.811373090
     0.343966710         0.100000000         0.833564490
     0.364771150         0.100000000         0.855755890
     0.385575590         0.100000000         0.877947300
     0.406380030         0.100000000         0.900138700
     0.427184470         0.100000000         0.922330100
     0.447988900         0.100000000         0.944521500
     0.468793340         0.100000000         0.966712900
     0.489597780         0.100000000         0.988904300
     0.012482660         0.100000000         0.413314840
     0.033287100         0.100000000         0.435506240
     0.054091540         0.100000000         0.457697640
     0.074895980         0.100000000         0.479889040
     0.095700420         0.100000000         0.502080440
     0.116504850         0.100000000         0.524271840
     0.137309290         0.100000000         0.546463250
     0.158113730         0.100000000         0.568654650
     0.178918170         0.100000000         0.590846050
     0.199722610         0.100000000         0.613037450
     0.220527050         0.100000000         0.635228850
     0.241331480         0.100000000         0.657420250
     0.262135920         0.100000000         0.679611650
     0.282940360         0.100000000         0.701803050
     0.303744800         0.100000000         0.723994450
     0.324549240         0.100000000         0.746185850
     0.345353680         0.100000000         0.768377250
     0.366158110         0.100000000         0.790568650
     0.386962550         0.100000000         0.812760060
     0.407766990         0.100000000         0.834951460
     0.428571430         0.100000000         0.857142860
     0.449375870         0.100000000         0.879334260
     0.470180310         0.100000000         0.901525660
     0.490984740         0.100000000         0.923717060
     0.511789180         0.100000000         0.945908460
     0.532593620         0.100000000         0.968099860
     0.553398060         0.100000000         0.990291260
     0.013869630         0.100000000         0.348127600
     0.034674060         0.100000000         0.370319000
     0.055478500         0.100000000         0.392510400
     0.076282940         0.100000000         0.414701800
     0.097087380         0.100000000         0.436893200
     0.117891820         0.100000000         0.459084600
     0.138696260         0.100000000         0.481276010
     0.159500690         0.100000000         0.503467410
     0.180305130         0.100000000         0.525658810
     0.201109570         0.100000000         0.547850210
     0.221914010         0.100000000         0.570041610
     0.242718450         0.100000000         0.592233010
     0.263522880         0.100000000         0.614424410
     0.284327320         0.100000000         0.636615810
     0.305131760         0.100000000         0.658807210
     0.325936200         0.100000000         0.680998610
     0.346740640         0.100000000         0.703190010
     0.367545080         0.100000000         0.725381410
     0.388349510         0.100000000         0.747572820
     0.409153950         0.100000000         0.769764220
     0.429958390         0.100000000         0.791955620
     0.450762830         0.100000000         0.814147020
     0.471567270         0.100000000         0.836338420
     0.492371710         0.100000000         0.858529820
     0.513176140         0.100000000         0.880721220
     0.533980580         0.100000000         0.902912620
     0.554785020         0.100000000         0.925104020
     0.575589460         0.100000000         0.947295420
     0.596393900         0.100000000         0.969486820
     0.617198340         0.100000000         0.991678220
     0.015256590         0.100000000         0.282940360
     0.036061030         0.100000000         0.305131760
     0.056865460         0.100000000         0.327323160
     0.077669900         0.100000000         0.349514560
     0.098474340         0.100000000         0.371705960
     0.119278780         0.100000000         0.393897360
     0.140083220         0.100000000         0.416088770
     0.160887660         0.100000000         0.438280170
     0.181692090         0.100000000         0.460471570
     0.202496530         0.100000000         0.482662970
     0.223300970         0.100000000         0.504854370
     0.244105410         0.100000000         0.527045770
     0.264909850         0.100000000         0.549237170
     0.285714290         0.100000000         0.571428570
     0.306518720         0.100000000         0.593619970
     0.327323160         0.100000000         0.615811370
     0.348127600         0.100000000         0.638002770
     0.368932040         0.100000000         0.660194170
     0.389736480         0.100000000         0.682385580
     0.410540920         0.100000000         0.704576980
     0.431345350         0.100000000         0.726768380
     0.452149790         0.100000000         0.748959780
     0.472954230         0.100000000         0.771151180
     0.493758670         0.100000000         0.793342580
     0.514563110         0.100000000         0.815533980
     0.535367550         0.100000000         0.837725380
     0.556171980         0.100000000         0.859916780
     0.576976420         0.100000000         0.882108180
     0.597780860         0.100000000         0.904299580
     0.618585300         0.100000000         0.926490980
     0.639389740         0.100000000         0.948682390
     0.660194170         0.100000000         0.970873790
     0.680998610         0.100000000         0.993065190
     0.016643550         0.100000000         0.217753120
     0.037447990         0.100000000         0.239944520
     0.058252430         0.100000000         0.262135920
     0.079056870         0.100000000         0.284327320
     0.099861300         0.100000000         0.306518720
     0.120665740         0.100000000         0.328710120
     0.141470180         0.100000000         0.350901530
     0.162274620         0.100000000         0.373092930
     0.183079060         0.100000000         0.395284330
     0.203883500         0.100000000         0.417475730
     0.224687930         0.100000000         0.439667130
     0.245492370         0.100000000         0.461858530
     0.266296810         0.100000000         0.484049930
     0.287101250         0.100000000         0.506241330
     0.307905690         0.100000000         0.528432730
     0.328710120         0.100000000         0.550624130
     0.349514560         0.100000000         0.572815530
     0.370319000         0.100000000         0.595006930
     0.391123440         0.100000000         0.617198340
     0.411927880         0.100000000         0.639389740
     0.432732320         0.100000000         0.661581140
     0.453536750         0.100000000         0.683772540
     0.474341190         0.100000000         0.705963940
     0.495145630         0.100000000         0.728155340
     0.515950070         0.100000000         0.750346740
     0.536754510         0.100000000         0.772538140
     0.557558950         0.100000000         0.794729540
     0.578363380         0.100000000         0.816920940
     0.599167820         0.100000000         0.839112340
     0.619972260         0.100000000         0.861303740
     0.640776700         0.100000000         0.883495150
     0.661581140         0.100000000         0.905686550
     0.682385580         0.100000000         0.927877950
     0.703190010         0.100000000         0.950069350
     0.723994450         0.100000000         0.972260750
     0.744798890         0.100000000         0.994452150
     0.018030510         0.100000000         0.152565880
     0.038834950         0.100000000         0.174757280
     0.059639390         0.100000000         0.196948680
     0.080443830         0.100000000         0.219140080
     0.101248270         0.100000000         0.241331480
     0.122052700         0.100000000         0.263522880
     0.142857140         0.100000000         0.285714290
     0.163661580         0.100000000         0.307905690
     0.184466020         0.100000000         0.330097090
     0.205270460         0.100000000         0.352288490
     0.226074900         0.100000000         0.374479890
     0.246879330         0.100000000         0.396671290
     0.267683770         0.100000000         0.418862690
     0.288488210         0.100000000         0.441054090
     0.309292650         0.100000000         0.463245490
     0.330097090         0.100000000         0.485436890
     0.350901530         0.100000000         0.507628290
     0.371705960         0.100000000         0.529819690
     0.392510400         0.100000000         0.552011100
     0.413314840         0.100000000         0.574202500
     0.434119280         0.100000000         0.596393900
     0.454923720         0.100000000         0.618585300
     0.475728160         0.100000000         0.640776700
     0.496532590         0.100000000         0.662968100
     0.517337030         0.100000000         0.685159500
     0.538141470         0.100000000         0.707350900
     0.558945910         0.100000000         0.729542300
     0.579750350         0.100000000         0.751733700
     0.600554790         0.100000000         0.773925100
     0.621359220         0.100000000         0.796116500
     0.642163660         0.100000000         0.818307910
     0.662968100         0.100000000         0.840499310
     0.683772540         0.100000000         0.862690710
     0.704576980         0.100000000         0.884882110
     0.725381410         0.100000000         0.907073510
     0.746185850         0.100000000         0.929264910
     0.766990290         0.100000000         0.951456310
     0.787794730         0.100000000         0.973647710
     0.808599170         0.100000000         0.995839110
     0.019417480         0.100000000         0.087378640
     0.040221910         0.100000000         0.109570040
     0.061026350         0.100000000         0.131761440
     0.081830790         0.100000000         0.153952840
     0.102635230         0.100000000         0.176144240
     0.123439670         0.100000000         0.198335640
     0.144244110         0.100000000         0.220527050
     0.165048540         0.100000000         0.242718450
     0.185852980         0.100000000         0.264909850
     0.206657420         0.100000000         0.287101250
     0.227461860         0.100000000         0.309292650
     0.248266300         0.100000000         0.331484050
     0.269070740         0.100000000         0.353675450
     0.289875170         0.100000000         0.375866850
     0.310679610         0.100000000         0.398058250
     0.331484050         0.100000000         0.420249650
     0.352288490         0.100000000         0.442441050
     0.373092930         0.100000000         0.464632450
     0.393897360         0.100000000         0.486823860
     0.414701800         0.100000000         0.509015260
     0.435506240         0.100000000         0.531206660
     0.456310680         0.100000000         0.553398060
     0.477115120         0.100000000         0.575589460
     0.497919560         0.100000000         0.597780860
     0.518723990         0.100000000         0.619972260
     0.539528430         0.100000000         0.642163660
     0.560332870         0.100000000         0.664355060
     0.581137310         0.100000000         0.686546460
     0.601941750         0.100000000         0.708737860
     0.622746190         0.100000000         0.730929260
     0.643550620         0.100000000         0.753120670
     0.664355060         0.100000000         0.775312070
     0.685159500         0.100000000         0.797503470
     0.705963940         0.100000000         0.819694870
     0.726768380         0.100000000         0.841886270
     0.747572820         0.100000000         0.864077670
     0.768377250         0.100000000         0.886269070
     0.789181690         0.100000000         0.908460470
     0.809986130         0.100000000         0.930651870
     0.830790570         0.100000000         0.952843270
     0.851595010         0.100000000         0.975034670
     0.872399450         0.100000000         0.997226070
     0.000000000         0.100000000         0.000000000
     0.020804440         0.100000000         0.022191400
     0.041608880         0.100000000         0.044382800
     0.062413310         0.100000000         0.066574200
     0.083217750         0.100000000         0.088765600
     0.104022190         0.100000000         0.110957000
     0.124826630         0.100000000         0.133148400
     0.145631070         0.100000000         0.155339810
     0.166435510         0.100000000         0.177531210
     0.187239940         0.100000000         0.199722610
     0.208044380         0.100000000         0.221914010
     0.228848820         0.100000000         0.244105410
     0.249653260         0.100000000         0.266296810
     0.270457700         0.100000000         0.288488210
     0.291262140         0.100000000         0.310679610
     0.312066570         0.100000000         0.332871010
     0.332871010         0.100000000         0.355062410
     0.353675450         0.100000000         0.377253810
     0.374479890         0.100000000         0.399445210
     0.395284330         0.100000000         0.421636620
     0.416088770         0.100000000         0.443828020
     0.436893200         0.100000000         0.466019420
     0.457697640         0.100000000         0.488210820
     0.478502080         0.100000000         0.510402220
     0.499306520         0.100000000         0.532593620
     0.520110960         0.100000000         0.554785020
     0.540915400         0.100000000         0.576976420
     0.561719830         0.100000000         0.599167820
     0.582524270         0.100000000         0.621359220
     0.603328710         0.100000000         0.643550620
     0.624133150         0.100000000         0.665742020
     0.644937590         0.100000000         0.687933430
     0.665742020         0.100000000         0.710124830
     0.686546460         0.100000000         0.732316230
     0.707350900         0.100000000         0.754507630
     0.728155340         0.100000000         0.776699030
     0.748959780         0.100000000         0.798890430
     0.769764220         0.100000000         0.821081830
     0.790568650         0.100000000         0.843273230
     0.811373090         0.100000000         0.865464630
     0.832177530         0.100000000         0.887656030
     0.852981970         0.100000000         0.909847430
     0.873786410         0.100000000         0.932038830
     0.894590850         0.100000000         0.954230240
     0.915395280         0.100000000         0.976421640
     0.936199720         0.100000000         0.998613040
     0.063800280         0.100000000         0.001386960
     0.084604720         0.100000000         0.023578360
     0.105409150         0.100000000         0.045769760
     0.126213590         0.100000000         0.067961170
     0.147018030         0.100000000         0.090152570
     0.167822470         0.100000000         0.112343970
     0.188626910         0.100000000         0.134535370
     0.209431350         0.100000000         0.156726770
     0.230235780         0.100000000         0.178918170
     0.251040220         0.100000000         0.201109570
     0.271844660         0.100000000         0.223300970
     0.292649100         0.100000000         0.245492370
     0.313453540         0.100000000         0.267683770
     0.334257980         0.100000000         0.289875170
     0.355062410         0.100000000         0.312066570
     0.375866850         0.100000000         0.334257980
     0.396671290         0.100000000         0.356449380
     0.417475730         0.100000000         0.378640780
     0.438280170         0.100000000         0.400832180
     0.459084600         0.100000000         0.423023580
     0.479889040         0.100000000         0.445214980
     0.500693480         0.100000000         0.467406380
     0.521497920         0.100000000         0.489597780
     0.542302360         0.100000000         0.511789180
     0.563106800         0.100000000         0.533980580
     0.583911230         0.100000000         0.556171980
     0.604715670         0.100000000         0.578363380
     0.625520110         0.100000000         0.600554790
     0.646324550         0.100000000         0.622746190
     0.667128990         0.100000000         0.644937590
     0.687933430         0.100000000         0.667128990
     0.708737860         0.100000000         0.689320390
     0.729542300         0.100000000         0.711511790
     0.750346740         0.100000000         0.733703190
     0.771151180         0.100000000         0.755894590
     0.791955620         0.100000000         0.778085990
     0.812760060         0.100000000         0.800277390
     0.833564490         0.100000000         0.822468790
     0.854368930         0.100000000         0.844660190
     0.875173370         0.100000000         0.866851600
     0.895977810         0.100000000         0.889043000
     0.916782250         0.100000000         0.911234400
     0.937586690         0.100000000         0.933425800
     0.958391120         0.100000000         0.955617200
     0.979195560         0.100000000         0.977808600
     0.127600550         0.100000000         0.002773930
     0.148404990         0.100000000         0.024965330
     0.169209430         0.100000000         0.047156730
     0.190013870         0.100000000         0.069348130
     0.210818310         0.100000000         0.091539530
     0.231622750         0.100000000         0.113730930
     0.252427180         0.100000000         0.135922330
     0.273231620         0.100000000         0.158113730
     0.294036060         0.100000000         0.180305130
     0.314840500         0.100000000         0.202496530
     0.335644940         0.100000000         0.224687930
     0.356449380         0.100000000         0.246879330
     0.377253810         0.100000000         0.269070740
     0.398058250         0.100000000         0.291262140
     0.418862690         0.100000000         0.313453540
     0.439667130         0.100000000         0.335644940
     0.460471570         0.100000000         0.357836340
     0.481276010         0.100000000         0.380027740
     0.502080440         0.100000000         0.402219140
     0.522884880         0.100000000         0.424410540
     0.543689320         0.100000000         0.446601940
     0.564493760         0.100000000         0.468793340
     0.585298200         0.100000000         0.490984740
     0.606102640         0.100000000         0.513176140
     0.626907070         0.100000000         0.535367550
     0.647711510         0.100000000         0.557558950
     0.668515950         0.100000000         0.579750350
     0.689320390         0.100000000         0.601941750
     0.710124830         0.100000000         0.624133150
     0.730929260         0.100000000         0.646324550
     0.751733700         0.100000000         0.668515950
     0.772538140         0.100000000         0.690707350
     0.793342580         0.100000000         0.712898750
     0.814147020         0.100000000         0.735090150
     0.834951460         0.100000000         0.757281550
     0.855755890         0.100000000         0.779472950
     0.876560330         0.100000000         0.801664360
     0.897364770         0.100000000         0.823855760
     0.918169210         0.100000000         0.846047160
     0.938973650         0.100000000         0.868238560
     0.959778090         0.100000000         0.890429960
     0.980582520         0.100000000         0.912621360
     0.191400830         0.100000000         0.004160890
     0.212205270         0.100000000         0.026352290
     0.233009710         0.100000000         0.048543690
     0.253814150         0.100000000         0.070735090
     0.274618590         0.100000000         0.092926490
     0.295423020         0.100000000         0.115117890
     0.316227460         0.100000000         0.137309290
     0.337031900         0.100000000         0.159500690
     0.357836340         0.100000000         0.181692090
     0.378640780         0.100000000         0.203883500
     0.399445210         0.100000000         0.226074900
     0.420249650         0.100000000         0.248266300
     0.441054090         0.100000000         0.270457700
     0.461858530         0.100000000         0.292649100
     0.482662970         0.100000000         0.314840500
     0.503467410         0.100000000         0.337031900
     0.524271840         0.100000000         0.359223300
     0.545076280         0.100000000         0.381414700
     0.565880720         0.100000000         0.403606100
     0.586685160         0.100000000         0.425797500
     0.607489600         0.100000000         0.447988900
     0.628294040         0.100000000         0.470180310
     0.649098470         0.100000000         0.492371710
     0.669902910         0.100000000         0.514563110
     0.690707350         0.100000000         0.536754510
     0.711511790         0.100000000         0.558945910
     0.732316230         0.100000000         0.581137310
     0.753120670         0.100000000         0.603328710
     0.773925100         0.100000000         0.625520110
     0.794729540         0.100000000         0.647711510
     0.815533980         0.100000000         0.669902910
     0.836338420         0.100000000         0.692094310
     0.857142860         0.100000000         0.714285710
     0.877947300         0.100000000         0.736477120
     0.898751730         0.100000000         0.758668520
     0.919556170         0.100000000         0.780859920
     0.940360610         0.100000000         0.803051320
     0.961165050         0.100000000         0.825242720
     0.981969490         0.100000000         0.847434120
     0.255201110         0.100000000         0.005547850
     0.276005550         0.100000000         0.027739250
     0.296809990         0.100000000         0.049930650
     0.317614420         0.100000000         0.072122050
     0.338418860         0.100000000         0.094313450
     0.359223300         0.100000000         0.116504850
     0.380027740         0.100000000         0.138696260
     0.400832180         0.100000000         0.160887660
     0.421636620         0.100000000         0.183079060
     0.442441050         0.100000000         0.205270460
     0.463245490         0.100000000         0.227461860
     0.484049930         0.100000000         0.249653260
     0.504854370         0.100000000         0.271844660
     0.525658810         0.100000000         0.294036060
     0.546463250         0.100000000         0.316227460
     0.567267680         0.100000000         0.338418860
     0.588072120         0.100000000         0.360610260
     0.608876560         0.100000000         0.382801660
     0.629681000         0.100000000         0.404993070
     0.650485440         0.100000000         0.427184470
     0.671289880         0.100000000         0.449375870
     0.692094310         0.100000000         0.471567270
     0.712898750         0.100000000         0.493758670
     0.733703190         0.100000000         0.515950070
     0.754507630         0.100000000         0.538141470
     0.775312070         0.100000000         0.560332870