Generated by Twist2D
1.0
       13.5272497111         6.3899683035         0.0000000000
      -12.8136329397        27.1258329068         0.0000000000
        6.7636248555         3.1949841518        12.9562199251
    C
  148
Direct
     0.027027030         0.100000000         0.702702700
     0.108108110         0.100000000         0.810810810
     0.189189190         0.100000000         0.918918920
     0.054054050         0.100000000         0.405405410
     0.135135140         0.100000000         0.513513510
     0.216216220         0.100000000         0.621621620
     0.297297300         0.100000000         0.729729730
     0.378378380         0.100000000         0.837837840
     0.459459460         0.100000000         0.945945950
     0.000000000         0.100000000         0.000000000
     0.081081080         0.100000000         0.108108110
     0.162162160         0.100000000         0.216216220
     0.243243240         0.100000000         0.324324320
     0.324324320         0.100000000         0.432432430
     0.405405410         0.100000000         0.540540540
     0.486486490         0.100000000         0.648648650
     0.567567570         0.100000000         0.756756760
     0.648648650         0.100000000         0.864864860
     0.729729730         0.100000000         0.972972970
     0.270270270         0.100000000         0.027027030
     0.351351350         0.100000000         0.135135140
     0.432432430         0.100000000         0.243243240
     0.513513510         0.100000000         0.351351350
     0.594594590         0.100000000         0.459459460
     0.675675680         0.100000000         0.567567570
     0.756756760         0.100000000         0.675675680
     0.837837840         0.100000000         0.783783780
     0.918918920         0.100000000         0.891891890
     0.540540540         0.100000000         0.054054050
     0.621621620         0.100000000         0.162162160
     0.702702700         0.100000000         0.270270270
     0.783783780         0.100000000         0.378378380
     0.864864860         0.100000000         0.486486490
     0.945945950         0.100000000         0.594594590
     0.810810810         0.100000000         0.081081080
     0.891891890         0.100000000         0.189189190
     0.972972970         0.100000000         0.297297300
     0.207207210         0.100000000         0.720720710
     0.288288290         0.100000000         0.828828820
     0.369369370         0.100000000         0.936936930
     0.234234230         0.100000000         0.423423420
     0.315315320         0.100000000         0.531531530
     0.396396400         0.100000000         0.639639630
     0.477477480         0.100000000         0.747747740
     0.558558560         0.100000000         0.855855850
     0.639639640         0.100000000         0.963963960
     0.180180180         0.100000000         0.018018010
     0.261261260         0.100000000         0.126126120
     0.342342340         0.100000000         0.234234230
     0.423423420         0.100000000         0.342342340
     0.504504510         0.100000000         0.450450440
     0.585585590         0.100000000         0.558558550
     0.666666670         0.100000000         0.666666660
     0.747747750         0.100000000         0.774774770
     0.828828830         0.100000000         0.882882880
     0.909909910         0.100000000         0.990990990
     0.450450450         0.100000000         0.045045040
     0.531531530         0.100000000         0.153153150
     0.612612610         0.100000000         0.261261260
     0.693693690         0.100000000         0.369369360
     0.774774780         0.100000000         0.477477470
     0.855855860         0.100000000         0.585585580
     0.936936940         0.100000000         0.693693690
     0.018018020         0.100000000         0.801801800
     0.099099100         0.100000000         0.909909900
     0.720720720         0.100000000         0.072072070
     0.801801800         0.100000000         0.180180170
     0.882882880         0.100000000         0.288288280
     0.963963960         0.100000000         0.396396390
     0.045045050         0.100000000         0.504504500
     0.126126130         0.100000000         0.612612610
     0.990990990         0.100000000         0.099099090
     0.072072070         0.100000000         0.207207200
     0.153153150         0.100000000         0.315315310
     0.081081080         0.213613330         0.810810810
     0.189189190         0.213613330         0.891891890
     0.297297300         0.213613330         0.972972970
     0.054054050         0.213613330         0.540540540
     0.162162160         0.213613330         0.621621620
     0.270270270         0.213613330         0.702702700
     0.378378380         0.213613330         0.783783780
     0.486486490         0.213613330         0.864864860
     0.594594590         0.213613330         0.945945950
     0.027027030         0.213613330         0.270270270
     0.135135140         0.213613330         0.351351350
     0.243243240         0.213613330         0.432432430
     0.351351350         0.213613330         0.513513510
     0.459459460         0.213613330         0.594594590
     0.567567570         0.213613330         0.675675680
     0.675675680         0.213613330         0.756756760
     0.783783780         0.213613330         0.837837840
     0.891891890         0.213613330         0.918918920
     0.000000000         0.213613330         0.000000000
     0.108108110         0.213613330         0.081081080
     0.216216220         0.213613330         0.162162160
     0.324324320         0.213613330         0.243243240
     0.432432430         0.213613330         0.324324320
     0.540540540         0.213613330         0.405405410
     0.648648650         0.213613330         0.486486490
     0.756756760         0.213613330         0.567567570
     0.864864860         0.213613330         0.648648650
     0.972972970         0.213613330         0.729729730
     0.405405410         0.213613330         0.054054050
     0.513513510         0.213613330         0.135135140
     0.621621620         0.213613330         0.216216220
     0.729729730         0.213613330         0.297297300
     0.837837840         0.213613330         0.378378380
     0.945945950         0.213613330         0.459459460
     0.702702700         0.213613330         0.027027030
     0.810810810         0.213613330         0.108108110
     0.918918920         0.213613330         0.189189190
     0.279279280         0.213613330         0.792792790
     0.387387390         0.213613330         0.873873870
     0.495495500         0.213613330         0.954954950
     0.252252250         0.213613330         0.522522520
     0.360360360         0.213613330         0.603603600
     0.468468470         0.213613330         0.684684680
     0.576576580         0.213613330         0.765765760
     0.684684680         0.213613330         0.846846840
     0.792792790         0.213613330         0.927927920
     0.225225220         0.213613330         0.252252250
     0.333333330         0.213613330         0.333333330
     0.441441440         0.213613330         0.414414410
     0.549549550         0.213613330         0.495495490
     0.657657660         0.213613330         0.576576570
     0.765765770         0.213613330         0.657657650
     0.873873870         0.213613330         0.738738730
     0.981981980         0.213613330         0.819819810
     0.090090090         0.213613330         0.900900900
     0.198198200         0.213613330         0.981981980
     0.306306310         0.213613330         0.063063060
     0.414414410         0.213613330         0.144144140
     0.522522520         0.213613330         0.225225220
     0.630630630         0.213613330         0.306306300
     0.738738740         0.213613330         0.387387380
     0.846846850         0.213613330         0.468468460
     0.954954950         0.213613330         0.549549540
     0.063063060         0.213613330         0.630630630
     0.171171170         0.213613330         0.711711710
     0.603603600         0.213613330         0.036036030
     0.711711710         0.213613330         0.117117110
     0.819819820         0.213613330         0.198198190
     0.927927930         0.213613330         0.279279270
     0.036036040         0.213613330         0.360360350
     0.144144140         0.213613330         0.441441440
     0.900900900         0.213613330         0.009009000
     0.009009010         0.213613330         0.090090080
     0.117117120         0.213613330         0.171171170
