Generated by Twist2D
1.0
       24.5950000109        12.7799368856         0.0000000000
      -13.8325190255        26.6206952841         0.0000000000
       12.2975000054         6.3899684428        24.0037623978
    C
  508
Direct
     0.007874020         0.100000000         0.842519690
     0.055118110         0.100000000         0.897637800
     0.102362200         0.100000000         0.952755910
     0.015748030         0.100000000         0.685039370
     0.062992130         0.100000000         0.740157480
     0.110236220         0.100000000         0.795275590
     0.157480310         0.100000000         0.850393700
     0.204724410         0.100000000         0.905511810
     0.251968500         0.100000000         0.960629920
     0.023622050         0.100000000         0.527559060
     0.070866140         0.100000000         0.582677170
     0.118110240         0.100000000         0.637795280
     0.165354330         0.100000000         0.692913390
     0.212598430         0.100000000         0.748031500
     0.259842520         0.100000000         0.803149610
     0.307086610         0.100000000         0.858267720
     0.354330710         0.100000000         0.913385830
     0.401574800         0.100000000         0.968503940
     0.031496060         0.100000000         0.370078740
     0.078740160         0.100000000         0.425196850
     0.125984250         0.100000000         0.480314960
     0.173228350         0.100000000         0.535433070
     0.220472440         0.100000000         0.590551180
     0.267716540         0.100000000         0.645669290
     0.314960630         0.100000000         0.700787400
     0.362204720         0.100000000         0.755905510
     0.409448820         0.100000000         0.811023620
     0.456692910         0.100000000         0.866141730
     0.503937010         0.100000000         0.921259840
     0.551181100         0.100000000         0.976377950
     0.039370080         0.100000000         0.212598430
     0.086614170         0.100000000         0.267716540
     0.133858270         0.100000000         0.322834650
     0.181102360         0.100000000         0.377952760
     0.228346460         0.100000000         0.433070870
     0.275590550         0.100000000         0.488188980
     0.322834650         0.100000000         0.543307090
     0.370078740         0.100000000         0.598425200
     0.417322830         0.100000000         0.653543310
     0.464566930         0.100000000         0.708661420
     0.511811020         0.100000000         0.763779530
     0.559055120         0.100000000         0.818897640
     0.606299210         0.100000000         0.874015750
     0.653543310         0.100000000         0.929133860
     0.700787400         0.100000000         0.984251970
     0.000000000         0.100000000         0.000000000
     0.047244090         0.100000000         0.055118110
     0.094488190         0.100000000         0.110236220
     0.141732280         0.100000000         0.165354330
     0.188976380         0.100000000         0.220472440
     0.236220470         0.100000000         0.275590550
     0.283464570         0.100000000         0.330708660
     0.330708660         0.100000000         0.385826770
     0.377952760         0.100000000         0.440944880
     0.425196850         0.100000000         0.496062990
     0.472440940         0.100000000         0.551181100
     0.519685040         0.100000000         0.606299210
     0.566929130         0.100000000         0.661417320
     0.614173230         0.100000000         0.716535430
     0.661417320         0.100000000         0.771653540
     0.708661420         0.100000000         0.826771650
     0.755905510         0.100000000         0.881889760
     0.803149610         0.100000000         0.937007870
     0.850393700         0.100000000         0.992125980
     0.149606300         0.100000000         0.007874020
     0.196850390         0.100000000         0.062992130
     0.244094490         0.100000000         0.118110240
     0.291338580         0.100000000         0.173228350
     0.338582680         0.100000000         0.228346460
     0.385826770         0.100000000         0.283464570
     0.433070870         0.100000000         0.338582680
     0.480314960         0.100000000         0.393700790
     0.527559060         0.100000000         0.448818900
     0.574803150         0.100000000         0.503937010
     0.622047240         0.100000000         0.559055120
     0.669291340         0.100000000         0.614173230
     0.716535430         0.100000000         0.669291340
     0.763779530         0.100000000         0.724409450
     0.811023620         0.100000000         0.779527560
     0.858267720         0.100000000         0.834645670
     0.905511810         0.100000000         0.889763780
     0.952755910         0.100000000         0.944881890
     0.299212600         0.100000000         0.015748030
     0.346456690         0.100000000         0.070866140
     0.393700790         0.100000000         0.125984250
     0.440944880         0.100000000         0.181102360
     0.488188980         0.100000000         0.236220470
     0.535433070         0.100000000         0.291338580
     0.582677170         0.100000000         0.346456690
     0.629921260         0.100000000         0.401574800
     0.677165350         0.100000000         0.456692910
     0.724409450         0.100000000         0.511811020
     0.771653540         0.100000000         0.566929130
     0.818897640         0.100000000         0.622047240
     0.866141730         0.100000000         0.677165350
     0.913385830         0.100000000         0.732283460
     0.960629920         0.100000000         0.787401570
     0.448818900         0.100000000         0.023622050
     0.496062990         0.100000000         0.078740160
     0.543307090         0.100000000         0.133858270
     0.590551180         0.100000000         0.188976380
     0.637795280         0.100000000         0.244094490
     0.685039370         0.100000000         0.299212600
     0.732283460         0.100000000         0.354330710
     0.779527560         0.100000000         0.409448820
     0.826771650         0.100000000         0.464566930
     0.874015750         0.100000000         0.519685040
     0.921259840         0.100000000         0.574803150
     0.968503940         0.100000000         0.629921260
     0.598425200         0.100000000         0.031496060
     0.645669290         0.100000000         0.086614170
     0.692913390         0.100000000         0.141732280
     0.740157480         0.100000000         0.196850390
     0.787401570         0.100000000         0.251968500
     0.834645670         0.100000000         0.307086610
     0.881889760         0.100000000         0.362204720
     0.929133860         0.100000000         0.417322830
     0.976377950         0.100000000         0.472440940
     0.748031500         0.100000000         0.039370080
     0.795275590         0.100000000         0.094488190
     0.842519690         0.100000000         0.149606300
     0.889763780         0.100000000         0.204724410
     0.937007870         0.100000000         0.259842520
     0.984251970         0.100000000         0.314960630
     0.897637800         0.100000000         0.047244090
     0.944881890         0.100000000         0.102362200
     0.992125980         0.100000000         0.157480310
     0.107611550         0.100000000         0.847769030
     0.154855640         0.100000000         0.902887140
     0.202099740         0.100000000         0.958005250
     0.115485560         0.100000000         0.690288710
     0.162729660         0.100000000         0.745406820
     0.209973750         0.100000000         0.800524930
     0.257217850         0.100000000         0.855643040
     0.304461940         0.100000000         0.910761150
     0.351706040         0.100000000         0.965879260
     0.123359580         0.100000000         0.532808400
     0.170603670         0.100000000         0.587926510
     0.217847770         0.100000000         0.643044620
     0.265091860         0.100000000         0.698162730
     0.312335960         0.100000000         0.753280840
     0.359580050         0.100000000         0.808398950
     0.406824150         0.100000000         0.863517060
     0.454068240         0.100000000         0.918635170
     0.501312340         0.100000000         0.973753280
     0.131233600         0.100000000         0.375328080
     0.178477690         0.100000000         0.430446190
     0.225721780         0.100000000         0.485564300
     0.272965880         0.100000000         0.540682410
     0.320209970         0.100000000         0.595800520
     0.367454070         0.100000000         0.650918630
     0.414698160         0.100000000         0.706036740
     0.461942260         0.100000000         0.761154850
     0.509186350         0.100000000         0.816272960
     0.556430450         0.100000000         0.871391070
     0.603674540         0.100000000         0.926509180
     0.650918640         0.100000000         0.981627290
     0.139107610         0.100000000         0.217847770
     0.186351710         0.100000000         0.272965880
     0.233595800         0.100000000         0.328083990
     0.280839900         0.100000000         0.383202100
     0.328083990         0.100000000         0.438320210
     0.375328080         0.100000000         0.493438320
     0.422572180         0.100000000         0.548556430
     0.469816270         0.100000000         0.603674540
     0.517060370         0.100000000         0.658792650
     0.564304460         0.100000000         0.713910760
     0.611548560         0.100000000         0.769028870
     0.658792650         0.100000000         0.824146980
     0.706036750         0.100000000         0.879265090
     0.753280840         0.100000000         0.934383200
     0.800524930         0.100000000         0.989501310
     0.099737530         0.100000000         0.005249340
     0.146981630         0.100000000         0.060367450
     0.194225720         0.100000000         0.115485560
     0.241469820         0.100000000         0.170603670
     0.288713910         0.100000000         0.225721780
     0.335958010         0.100000000         0.280839890
     0.383202100         0.100000000         0.335958000
     0.430446190         0.100000000         0.391076110
     0.477690290         0.100000000         0.446194220
     0.524934380         0.100000000         0.501312330
     0.572178480         0.100000000         0.556430440
     0.619422570         0.100000000         0.611548550
     0.666666670         0.100000000         0.666666660
     0.713910760         0.100000000         0.721784770
     0.761154860         0.100000000         0.776902880
     0.808398950         0.100000000         0.832020990
     0.855643040         0.100000000         0.887139100
     0.902887140         0.100000000         0.942257210
     0.950131230         0.100000000         0.997375320
     0.249343830         0.100000000         0.013123360
     0.296587930         0.100000000         0.068241470
     0.343832020         0.100000000         0.123359580
     0.391076120         0.100000000         0.178477690
     0.438320210         0.100000000         0.233595800
     0.485564300         0.100000000         0.288713910
     0.532808400         0.100000000         0.343832020
     0.580052490         0.100000000         0.398950130
     0.627296590         0.100000000         0.454068240
     0.674540680         0.100000000         0.509186350
     0.721784780         0.100000000         0.564304460
     0.769028870         0.100000000         0.619422570
     0.816272970         0.100000000         0.674540680
     0.863517060         0.100000000         0.729658790
     0.910761160         0.100000000         0.784776900
     0.958005250         0.100000000         0.839895010
     0.005249340         0.100000000         0.895013120
     0.052493440         0.100000000         0.950131230
     0.398950130         0.100000000         0.020997370
     0.446194230         0.100000000         0.076115480
     0.493438320         0.100000000         0.131233590
     0.540682410         0.100000000         0.186351700
     0.587926510         0.100000000         0.241469810
     0.635170600         0.100000000         0.296587920
     0.682414700         0.100000000         0.351706030
     0.729658790         0.100000000         0.406824140
     0.776902890         0.100000000         0.461942250
     0.824146980         0.100000000         0.517060360
     0.871391080         0.100000000         0.572178470
     0.918635170         0.100000000         0.627296580
     0.965879270         0.100000000         0.682414700
     0.013123360         0.100000000         0.737532810
     0.060367450         0.100000000         0.792650920
     0.548556430         0.100000000         0.028871390
     0.595800530         0.100000000         0.083989500
     0.643044620         0.100000000         0.139107610
     0.690288710         0.100000000         0.194225720
     0.737532810         0.100000000         0.249343830
     0.784776900         0.100000000         0.304461940
     0.832021000         0.100000000         0.359580050
     0.879265090         0.100000000         0.414698160
     0.926509190         0.100000000         0.469816270
     0.973753280         0.100000000         0.524934380
     0.020997380         0.100000000         0.580052490
     0.068241470         0.100000000         0.635170600
     0.698162730         0.100000000         0.036745400
     0.745406820         0.100000000         0.091863510
     0.792650920         0.100000000         0.146981620
     0.839895010         0.100000000         0.202099730
     0.887139110         0.100000000         0.257217840
     0.934383200         0.100000000         0.312335950
     0.981627300         0.100000000         0.367454070
     0.028871390         0.100000000         0.422572180
     0.076115490         0.100000000         0.477690290
     0.847769030         0.100000000         0.044619420
     0.895013120         0.100000000         0.099737530
     0.942257220         0.100000000         0.154855640
     0.989501310         0.100000000         0.209973750
     0.036745410         0.100000000         0.265091860
     0.083989500         0.100000000         0.320209970
     0.997375330         0.100000000         0.052493440
     0.044619420         0.100000000         0.107611550
     0.091863520         0.100000000         0.162729660
     0.047244090         0.213613330         0.897637800
     0.102362200         0.213613330         0.944881890
     0.157480310         0.213613330         0.992125980
     0.039370080         0.213613330         0.748031500
     0.094488190         0.213613330         0.795275590
     0.149606300         0.213613330         0.842519690
     0.204724410         0.213613330         0.889763780
     0.259842520         0.213613330         0.937007870
     0.314960630         0.213613330         0.984251970
     0.031496060         0.213613330         0.598425200
     0.086614170         0.213613330         0.645669290
     0.141732280         0.213613330         0.692913390
     0.196850390         0.213613330         0.740157480
     0.251968500         0.213613330         0.787401570
     0.307086610         0.213613330         0.834645670
     0.362204720         0.213613330         0.881889760
     0.417322830         0.213613330         0.929133860
     0.472440940         0.213613330         0.976377950
     0.023622050         0.213613330         0.448818900
     0.078740160         0.213613330         0.496062990
     0.133858270         0.213613330         0.543307090
     0.188976380         0.213613330         0.590551180
     0.244094490         0.213613330         0.637795280
     0.299212600         0.213613330         0.685039370
     0.354330710         0.213613330         0.732283460
     0.409448820         0.213613330         0.779527560
     0.464566930         0.213613330         0.826771650
     0.519685040         0.213613330         0.874015750
     0.574803150         0.213613330         0.921259840
     0.629921260         0.213613330         0.968503940
     0.015748030         0.213613330         0.299212600
     0.070866140         0.213613330         0.346456690
     0.125984250         0.213613330         0.393700790
     0.181102360         0.213613330         0.440944880
     0.236220470         0.213613330         0.488188980
     0.291338580         0.213613330         0.535433070
     0.346456690         0.213613330         0.582677170
     0.401574800         0.213613330         0.629921260
     0.456692910         0.213613330         0.677165350
     0.511811020         0.213613330         0.724409450
     0.566929130         0.213613330         0.771653540
     0.622047240         0.213613330         0.818897640
     0.677165350         0.213613330         0.866141730
     0.732283460         0.213613330         0.913385830
     0.787401570         0.213613330         0.960629920
     0.007874020         0.213613330         0.149606300
     0.062992130         0.213613330         0.196850390
     0.118110240         0.213613330         0.244094490
     0.173228350         0.213613330         0.291338580
     0.228346460         0.213613330         0.338582680
     0.283464570         0.213613330         0.385826770
     0.338582680         0.213613330         0.433070870
     0.393700790         0.213613330         0.480314960
     0.448818900         0.213613330         0.527559060
     0.503937010         0.213613330         0.574803150
     0.559055120         0.213613330         0.622047240
     0.614173230         0.213613330         0.669291340
     0.669291340         0.213613330         0.716535430
     0.724409450         0.213613330         0.763779530
     0.779527560         0.213613330         0.811023620
     0.834645670         0.213613330         0.858267720
     0.889763780         0.213613330         0.905511810
     0.944881890         0.213613330         0.952755910
     0.000000000         0.213613330         0.000000000
     0.055118110         0.213613330         0.047244090
     0.110236220         0.213613330         0.094488190
     0.165354330         0.213613330         0.141732280
     0.220472440         0.213613330         0.188976380
     0.275590550         0.213613330         0.236220470
     0.330708660         0.213613330         0.283464570
     0.385826770         0.213613330         0.330708660
     0.440944880         0.213613330         0.377952760
     0.496062990         0.213613330         0.425196850
     0.551181100         0.213613330         0.472440940
     0.606299210         0.213613330         0.519685040
     0.661417320         0.213613330         0.566929130
     0.716535430         0.213613330         0.614173230
     0.771653540         0.213613330         0.661417320
     0.826771650         0.213613330         0.708661420
     0.881889760         0.213613330         0.755905510
     0.937007870         0.213613330         0.803149610
     0.992125980         0.213613330         0.850393700
     0.212598430         0.213613330         0.039370080
     0.267716540         0.213613330         0.086614170
     0.322834650         0.213613330         0.133858270
     0.377952760         0.213613330         0.181102360
     0.433070870         0.213613330         0.228346460
     0.488188980         0.213613330         0.275590550
     0.543307090         0.213613330         0.322834650
     0.598425200         0.213613330         0.370078740
     0.653543310         0.213613330         0.417322830
     0.708661420         0.213613330         0.464566930
     0.763779530         0.213613330         0.511811020
     0.818897640         0.213613330         0.559055120
     0.874015750         0.213613330         0.606299210
     0.929133860         0.213613330         0.653543310
     0.984251970         0.213613330         0.700787400
     0.370078740         0.213613330         0.031496060
     0.425196850         0.213613330         0.078740160
     0.480314960         0.213613330         0.125984250
     0.535433070         0.213613330         0.173228350
     0.590551180         0.213613330         0.220472440
     0.645669290         0.213613330         0.267716540
     0.700787400         0.213613330         0.314960630
     0.755905510         0.213613330         0.362204720
     0.811023620         0.213613330         0.409448820
     0.866141730         0.213613330         0.456692910
     0.921259840         0.213613330         0.503937010
     0.976377950         0.213613330         0.551181100
     0.527559060         0.213613330         0.023622050
     0.582677170         0.213613330         0.070866140
     0.637795280         0.213613330         0.118110240
     0.692913390         0.213613330         0.165354330
     0.748031500         0.213613330         0.212598430
     0.803149610         0.213613330         0.259842520
     0.858267720         0.213613330         0.307086610
     0.913385830         0.213613330         0.354330710
     0.968503940         0.213613330         0.401574800
     0.685039370         0.213613330         0.015748030
     0.740157480         0.213613330         0.062992130
     0.795275590         0.213613330         0.110236220
     0.850393700         0.213613330         0.157480310
     0.905511810         0.213613330         0.204724410
     0.960629920         0.213613330         0.251968500
     0.842519690         0.213613330         0.007874020
     0.897637800         0.213613330         0.055118110
     0.952755910         0.213613330         0.102362200
     0.152230970         0.213613330         0.892388450
     0.207349080         0.213613330         0.939632540
     0.262467190         0.213613330         0.986876640
     0.144356960         0.213613330         0.742782150
     0.199475070         0.213613330         0.790026240
     0.254593180         0.213613330         0.837270340
     0.309711290         0.213613330         0.884514430
     0.364829400         0.213613330         0.931758530
     0.419947510         0.213613330         0.979002620
     0.136482940         0.213613330         0.593175850
     0.191601050         0.213613330         0.640419940
     0.246719160         0.213613330         0.687664040
     0.301837270         0.213613330         0.734908130
     0.356955380         0.213613330         0.782152230
     0.412073490         0.213613330         0.829396320
     0.467191600         0.213613330         0.876640420
     0.522309710         0.213613330         0.923884510
     0.577427820         0.213613330         0.971128610
     0.128608920         0.213613330         0.443569550
     0.183727030         0.213613330         0.490813650
     0.238845140         0.213613330         0.538057740
     0.293963250         0.213613330         0.585301830
     0.349081360         0.213613330         0.632545930
     0.404199470         0.213613330         0.679790020
     0.459317590         0.213613330         0.727034120
     0.514435700         0.213613330         0.774278210
     0.569553810         0.213613330         0.821522310
     0.624671920         0.213613330         0.868766400
     0.679790030         0.213613330         0.916010500
     0.734908140         0.213613330         0.963254590
     0.120734910         0.213613330         0.293963250
     0.175853020         0.213613330         0.341207350
     0.230971130         0.213613330         0.388451440
     0.286089240         0.213613330         0.435695540
     0.341207350         0.213613330         0.482939630
     0.396325460         0.213613330         0.530183720
     0.451443570         0.213613330         0.577427820
     0.506561680         0.213613330         0.624671910
     0.561679790         0.213613330         0.671916010
     0.616797900         0.213613330         0.719160100
     0.671916010         0.213613330         0.766404200
     0.727034120         0.213613330         0.813648290
     0.782152230         0.213613330         0.860892390
     0.837270340         0.213613330         0.908136480
     0.892388450         0.213613330         0.955380570
     0.112860890         0.213613330         0.144356950
     0.167979000         0.213613330         0.191601050
     0.223097110         0.213613330         0.238845140
     0.278215220         0.213613330         0.286089240
     0.333333330         0.213613330         0.333333330
     0.388451440         0.213613330         0.380577420
     0.443569550         0.213613330         0.427821520
     0.498687660         0.213613330         0.475065610
     0.553805770         0.213613330         0.522309710
     0.608923880         0.213613330         0.569553800
     0.664041990         0.213613330         0.616797900
     0.719160100         0.213613330         0.664041990
     0.774278220         0.213613330         0.711286090
     0.829396330         0.213613330         0.758530180
     0.884514440         0.213613330         0.805774280
     0.939632550         0.213613330         0.853018370
     0.994750660         0.213613330         0.900262460
     0.049868770         0.213613330         0.947506560
     0.104986880         0.213613330         0.994750650
     0.160104990         0.213613330         0.041994750
     0.215223100         0.213613330         0.089238840
     0.270341210         0.213613330         0.136482940
     0.325459320         0.213613330         0.183727030
     0.380577430         0.213613330         0.230971130
     0.435695540         0.213613330         0.278215220
     0.490813650         0.213613330         0.325459310
     0.545931760         0.213613330         0.372703410
     0.601049870         0.213613330         0.419947500
     0.656167980         0.213613330         0.467191600
     0.711286090         0.213613330         0.514435690
     0.766404200         0.213613330         0.561679790
     0.821522310         0.213613330         0.608923880
     0.876640420         0.213613330         0.656167980
     0.931758530         0.213613330         0.703412070
     0.986876640         0.213613330         0.750656160
     0.041994750         0.213613330         0.797900260
     0.097112860         0.213613330         0.845144350
     0.317585300         0.213613330         0.034120730
     0.372703410         0.213613330         0.081364830
     0.427821520         0.213613330         0.128608920
     0.482939630         0.213613330         0.175853020
     0.538057740         0.213613330         0.223097110
     0.593175850         0.213613330         0.270341200
     0.648293960         0.213613330         0.317585300
     0.703412070         0.213613330         0.364829390
     0.758530180         0.213613330         0.412073490
     0.813648290         0.213613330         0.459317580
     0.868766400         0.213613330         0.506561680
     0.923884510         0.213613330         0.553805770
     0.979002620         0.213613330         0.601049870
     0.034120730         0.213613330         0.648293960
     0.089238850         0.213613330         0.695538050
     0.475065620         0.213613330         0.026246720
     0.530183730         0.213613330         0.073490810
     0.585301840         0.213613330         0.120734910
     0.640419950         0.213613330         0.167979000
     0.695538060         0.213613330         0.215223090
     0.750656170         0.213613330         0.262467190
     0.805774280         0.213613330         0.309711280
     0.860892390         0.213613330         0.356955380
     0.916010500         0.213613330         0.404199470
     0.971128610         0.213613330         0.451443570
     0.026246720         0.213613330         0.498687660
     0.081364830         0.213613330         0.545931760
     0.632545930         0.213613330         0.018372700
     0.687664040         0.213613330         0.065616790
     0.742782150         0.213613330         0.112860890
     0.797900260         0.213613330         0.160104980
     0.853018370         0.213613330         0.207349080
     0.908136480         0.213613330         0.254593170
     0.963254590         0.213613330         0.301837270
     0.018372700         0.213613330         0.349081360
     0.073490810         0.213613330         0.396325460
     0.790026250         0.213613330         0.010498680
     0.845144360         0.213613330         0.057742780
     0.900262470         0.213613330         0.104986870
     0.955380580         0.213613330         0.152230970
     0.010498690         0.213613330         0.199475060
     0.065616800         0.213613330         0.246719160
     0.947506560         0.213613330         0.002624670
     0.002624670         0.213613330         0.049868760
     0.057742780         0.213613330         0.097112860
