Generated by Twist2D
1.0
       87.3122494283        48.9897577292         0.0000000000
      -14.6797435339        26.1630489389         0.0000000000
       43.6561247141        24.4948788646        86.7039154072
    C
 6628
Direct
     0.000603500         0.100000000         0.957151480
     0.014484010         0.100000000         0.971635490
     0.028364510         0.100000000         0.986119490
     0.001207000         0.100000000         0.914302960
     0.015087510         0.100000000         0.928786960
     0.028968010         0.100000000         0.943270970
     0.042848520         0.100000000         0.957754980
     0.056729030         0.100000000         0.972238990
     0.070609540         0.100000000         0.986722990
     0.001810500         0.100000000         0.871454440
     0.015691010         0.100000000         0.885938440
     0.029571510         0.100000000         0.900422450
     0.043452020         0.100000000         0.914906460
     0.057332530         0.100000000         0.929390460
     0.071213040         0.100000000         0.943874470
     0.085093540         0.100000000         0.958358480
     0.098974050         0.100000000         0.972842490
     0.112854560         0.100000000         0.987326490
     0.002414000         0.100000000         0.828605910
     0.016294510         0.100000000         0.843089920
     0.030175020         0.100000000         0.857573930
     0.044055520         0.100000000         0.872057940
     0.057936030         0.100000000         0.886541940
     0.071816540         0.100000000         0.901025950
     0.085697040         0.100000000         0.915509960
     0.099577550         0.100000000         0.929993960
     0.113458060         0.100000000         0.944477970
     0.127338560         0.100000000         0.958961980
     0.141219070         0.100000000         0.973445990
     0.155099580         0.100000000         0.987929990
     0.003017500         0.100000000         0.785757390
     0.016898010         0.100000000         0.800241400
     0.030778520         0.100000000         0.814725410
     0.044659020         0.100000000         0.829209410
     0.058539530         0.100000000         0.843693420
     0.072420040         0.100000000         0.858177430
     0.086300540         0.100000000         0.872661440
     0.100181050         0.100000000         0.887145440
     0.114061560         0.100000000         0.901629450
     0.127942060         0.100000000         0.916113460
     0.141822570         0.100000000         0.930597470
     0.155703080         0.100000000         0.945081470
     0.169583580         0.100000000         0.959565480
     0.183464090         0.100000000         0.974049490
     0.197344600         0.100000000         0.988533490
     0.003621000         0.100000000         0.742908870
     0.017501510         0.100000000         0.757392880
     0.031382020         0.100000000         0.771876890
     0.045262520         0.100000000         0.786360890
     0.059143030         0.100000000         0.800844900
     0.073023540         0.100000000         0.815328910
     0.086904040         0.100000000         0.829812910
     0.100784550         0.100000000         0.844296920
     0.114665060         0.100000000         0.858780930
     0.128545560         0.100000000         0.873264940
     0.142426070         0.100000000         0.887748940
     0.156306580         0.100000000         0.902232950
     0.170187090         0.100000000         0.916716960
     0.184067590         0.100000000         0.931200970
     0.197948100         0.100000000         0.945684970
     0.211828610         0.100000000         0.960168980
     0.225709110         0.100000000         0.974652990
     0.239589620         0.100000000         0.989136990
     0.004224500         0.100000000         0.700060350
     0.018105010         0.100000000         0.714544360
     0.031985520         0.100000000         0.729028360
     0.045866020         0.100000000         0.743512370
     0.059746530         0.100000000         0.757996380
     0.073627040         0.100000000         0.772480390
     0.087507540         0.100000000         0.786964390
     0.101388050         0.100000000         0.801448400
     0.115268560         0.100000000         0.815932410
     0.129149060         0.100000000         0.830416420
     0.143029570         0.100000000         0.844900420
     0.156910080         0.100000000         0.859384430
     0.170790590         0.100000000         0.873868440
     0.184671090         0.100000000         0.888352440
     0.198551600         0.100000000         0.902836450
     0.212432110         0.100000000         0.917320460
     0.226312610         0.100000000         0.931804470
     0.240193120         0.100000000         0.946288470
     0.254073630         0.100000000         0.960772480
     0.267954130         0.100000000         0.975256490
     0.281834640         0.100000000         0.989740490
     0.004828000         0.100000000         0.657211830
     0.018708510         0.100000000         0.671695840
     0.032589020         0.100000000         0.686179840
     0.046469520         0.100000000         0.700663850
     0.060350030         0.100000000         0.715147860
     0.074230540         0.100000000         0.729631860
     0.088111040         0.100000000         0.744115870
     0.101991550         0.100000000         0.758599880
     0.115872060         0.100000000         0.773083890
     0.129752560         0.100000000         0.787567890
     0.143633070         0.100000000         0.802051900
     0.157513580         0.100000000         0.816535910
     0.171394090         0.100000000         0.831019920
     0.185274590         0.100000000         0.845503920
     0.199155100         0.100000000         0.859987930
     0.213035610         0.100000000         0.874471940
     0.226916110         0.100000000         0.888955940
     0.240796620         0.100000000         0.903439950
     0.254677130         0.100000000         0.917923960
     0.268557630         0.100000000         0.932407970
     0.282438140         0.100000000         0.946891970
     0.296318650         0.100000000         0.961375980
     0.310199160         0.100000000         0.975859990
     0.324079660         0.100000000         0.990344000
     0.005431500         0.100000000         0.614363310
     0.019312010         0.100000000         0.628847310
     0.033192520         0.100000000         0.643331320
     0.047073020         0.100000000         0.657815330
     0.060953530         0.100000000         0.672299340
     0.074834040         0.100000000         0.686783340
     0.088714540         0.100000000         0.701267350
     0.102595050         0.100000000         0.715751360
     0.116475560         0.100000000         0.730235370
     0.130356070         0.100000000         0.744719370
     0.144236570         0.100000000         0.759203380
     0.158117080         0.100000000         0.773687390
     0.171997590         0.100000000         0.788171390
     0.185878090         0.100000000         0.802655400
     0.199758600         0.100000000         0.817139410
     0.213639110         0.100000000         0.831623420
     0.227519610         0.100000000         0.846107420
     0.241400120         0.100000000         0.860591430
     0.255280630         0.100000000         0.875075440
     0.269161130         0.100000000         0.889559440
     0.283041640         0.100000000         0.904043450
     0.296922150         0.100000000         0.918527460
     0.310802660         0.100000000         0.933011470
     0.324683160         0.100000000         0.947495470
     0.338563670         0.100000000         0.961979480
     0.352444180         0.100000000         0.976463490
     0.366324680         0.100000000         0.990947500
     0.006035000         0.100000000         0.571514790
     0.019915510         0.100000000         0.585998790
     0.033796020         0.100000000         0.600482800
     0.047676520         0.100000000         0.614966810
     0.061557030         0.100000000         0.629450810
     0.075437540         0.100000000         0.643934820
     0.089318040         0.100000000         0.658418830
     0.103198550         0.100000000         0.672902840
     0.117079060         0.100000000         0.687386840
     0.130959570         0.100000000         0.701870850
     0.144840070         0.100000000         0.716354860
     0.158720580         0.100000000         0.730838870
     0.172601090         0.100000000         0.745322870
     0.186481590         0.100000000         0.759806880
     0.200362100         0.100000000         0.774290890
     0.214242610         0.100000000         0.788774890
     0.228123110         0.100000000         0.803258900
     0.242003620         0.100000000         0.817742910
     0.255884130         0.100000000         0.832226920
     0.269764630         0.100000000         0.846710920
     0.283645140         0.100000000         0.861194930
     0.297525650         0.100000000         0.875678940
     0.311406160         0.100000000         0.890162950
     0.325286660         0.100000000         0.904646950
     0.339167170         0.100000000         0.919130960
     0.353047680         0.100000000         0.933614970
     0.366928180         0.100000000         0.948098970
     0.380808690         0.100000000         0.962582980
     0.394689200         0.100000000         0.977066990
     0.408569700         0.100000000         0.991551000
     0.006638500         0.100000000         0.528666260
     0.020519010         0.100000000         0.543150270
     0.034399520         0.100000000         0.557634280
     0.048280020         0.100000000         0.572118290
     0.062160530         0.100000000         0.586602290
     0.076041040         0.100000000         0.601086300
     0.089921540         0.100000000         0.615570310
     0.103802050         0.100000000         0.630054320
     0.117682560         0.100000000         0.644538320
     0.131563070         0.100000000         0.659022330
     0.145443570         0.100000000         0.673506340
     0.159324080         0.100000000         0.687990340
     0.173204590         0.100000000         0.702474350
     0.187085090         0.100000000         0.716958360
     0.200965600         0.100000000         0.731442370
     0.214846110         0.100000000         0.745926370
     0.228726610         0.100000000         0.760410380
     0.242607120         0.100000000         0.774894390
     0.256487630         0.100000000         0.789378390
     0.270368140         0.100000000         0.803862400
     0.284248640         0.100000000         0.818346410
     0.298129150         0.100000000         0.832830420
     0.312009660         0.100000000         0.847314420
     0.325890160         0.100000000         0.861798430
     0.339770670         0.100000000         0.876282440
     0.353651180         0.100000000         0.890766450
     0.367531680         0.100000000         0.905250450
     0.381412190         0.100000000         0.919734460
     0.395292700         0.100000000         0.934218470
     0.409173200         0.100000000         0.948702470
     0.423053710         0.100000000         0.963186480
     0.436934220         0.100000000         0.977670490
     0.450814730         0.100000000         0.992154500
     0.007242000         0.100000000         0.485817740
     0.021122510         0.100000000         0.500301750
     0.035003020         0.100000000         0.514785760
     0.048883520         0.100000000         0.529269760
     0.062764030         0.100000000         0.543753770
     0.076644540         0.100000000         0.558237780
     0.090525050         0.100000000         0.572721790
     0.104405550         0.100000000         0.587205790
     0.118286060         0.100000000         0.601689800
     0.132166570         0.100000000         0.616173810
     0.146047070         0.100000000         0.630657820
     0.159927580         0.100000000         0.645141820
     0.173808090         0.100000000         0.659625830
     0.187688590         0.100000000         0.674109840
     0.201569100         0.100000000         0.688593840
     0.215449610         0.100000000         0.703077850
     0.229330110         0.100000000         0.717561860
     0.243210620         0.100000000         0.732045870
     0.257091130         0.100000000         0.746529870
     0.270971640         0.100000000         0.761013880
     0.284852140         0.100000000         0.775497890
     0.298732650         0.100000000         0.789981890
     0.312613160         0.100000000         0.804465900
     0.326493660         0.100000000         0.818949910
     0.340374170         0.100000000         0.833433920
     0.354254680         0.100000000         0.847917920
     0.368135180         0.100000000         0.862401930
     0.382015690         0.100000000         0.876885940
     0.395896200         0.100000000         0.891369950
     0.409776700         0.100000000         0.905853950
     0.423657210         0.100000000         0.920337960
     0.437537720         0.100000000         0.934821970
     0.451418230         0.100000000         0.949305970
     0.465298730         0.100000000         0.963789980
     0.479179240         0.100000000         0.978273990
     0.493059750         0.100000000         0.992758000
     0.007845500         0.100000000         0.442969220
     0.021726010         0.100000000         0.457453230
     0.035606520         0.100000000         0.471937240
     0.049487020         0.100000000         0.486421240
     0.063367530         0.100000000         0.500905250
     0.077248040         0.100000000         0.515389260
     0.091128550         0.100000000         0.529873260
     0.105009050         0.100000000         0.544357270
     0.118889560         0.100000000         0.558841280
     0.132770070         0.100000000         0.573325290
     0.146650570         0.100000000         0.587809290
     0.160531080         0.100000000         0.602293300
     0.174411590         0.100000000         0.616777310
     0.188292090         0.100000000         0.631261320
     0.202172600         0.100000000         0.645745320
     0.216053110         0.100000000         0.660229330
     0.229933610         0.100000000         0.674713340
     0.243814120         0.100000000         0.689197340
     0.257694630         0.100000000         0.703681350
     0.271575140         0.100000000         0.718165360
     0.285455640         0.100000000         0.732649370
     0.299336150         0.100000000         0.747133370
     0.313216660         0.100000000         0.761617380
     0.327097160         0.100000000         0.776101390
     0.340977670         0.100000000         0.790585400
     0.354858180         0.100000000         0.805069400
     0.368738680         0.100000000         0.819553410
     0.382619190         0.100000000         0.834037420
     0.396499700         0.100000000         0.848521420
     0.410380210         0.100000000         0.863005430
     0.424260710         0.100000000         0.877489440
     0.438141220         0.100000000         0.891973450
     0.452021730         0.100000000         0.906457450
     0.465902230         0.100000000         0.920941460
     0.479782740         0.100000000         0.935425470
     0.493663250         0.100000000         0.949909470
     0.507543750         0.100000000         0.964393480
     0.521424260         0.100000000         0.978877490
     0.535304770         0.100000000         0.993361500
     0.008449000         0.100000000         0.400120700
     0.022329510         0.100000000         0.414604710
     0.036210020         0.100000000         0.429088710
     0.050090530         0.100000000         0.443572720
     0.063971030         0.100000000         0.458056730
     0.077851540         0.100000000         0.472540740
     0.091732050         0.100000000         0.487024740
     0.105612550         0.100000000         0.501508750
     0.119493060         0.100000000         0.515992760
     0.133373570         0.100000000         0.530476770
     0.147254070         0.100000000         0.544960770
     0.161134580         0.100000000         0.559444780
     0.175015090         0.100000000         0.573928790
     0.188895590         0.100000000         0.588412790
     0.202776100         0.100000000         0.602896800
     0.216656610         0.100000000         0.617380810
     0.230537120         0.100000000         0.631864820
     0.244417620         0.100000000         0.646348820
     0.258298130         0.100000000         0.660832830
     0.272178640         0.100000000         0.675316840
     0.286059140         0.100000000         0.689800840
     0.299939650         0.100000000         0.704284850
     0.313820160         0.100000000         0.718768860
     0.327700660         0.100000000         0.733252870
     0.341581170         0.100000000         0.747736870
     0.355461680         0.100000000         0.762220880
     0.369342180         0.100000000         0.776704890
     0.383222690         0.100000000         0.791188900
     0.397103200         0.100000000         0.805672900
     0.410983710         0.100000000         0.820156910
     0.424864210         0.100000000         0.834640920
     0.438744720         0.100000000         0.849124920
     0.452625230         0.100000000         0.863608930
     0.466505730         0.100000000         0.878092940
     0.480386240         0.100000000         0.892576950
     0.494266750         0.100000000         0.907060950
     0.508147250         0.100000000         0.921544960
     0.522027760         0.100000000         0.936028970
     0.535908270         0.100000000         0.950512980
     0.549788770         0.100000000         0.964996980
     0.563669280         0.100000000         0.979480990
     0.577549790         0.100000000         0.993965000
     0.009052500         0.100000000         0.357272180
     0.022933010         0.100000000         0.371756190
     0.036813520         0.100000000         0.386240190
     0.050694030         0.100000000         0.400724200
     0.064574530         0.100000000         0.415208210
     0.078455040         0.100000000         0.429692210
     0.092335550         0.100000000         0.444176220
     0.106216050         0.100000000         0.458660230
     0.120096560         0.100000000         0.473144240
     0.133977070         0.100000000         0.487628240
     0.147857570         0.100000000         0.502112250
     0.161738080         0.100000000         0.516596260
     0.175618590         0.100000000         0.531080270
     0.189499090         0.100000000         0.545564270
     0.203379600         0.100000000         0.560048280
     0.217260110         0.100000000         0.574532290
     0.231140620         0.100000000         0.589016290
     0.245021120         0.100000000         0.603500300
     0.258901630         0.100000000         0.617984310
     0.272782140         0.100000000         0.632468320
     0.286662640         0.100000000         0.646952320
     0.300543150         0.100000000         0.661436330
     0.314423660         0.100000000         0.675920340
     0.328304160         0.100000000         0.690404350
     0.342184670         0.100000000         0.704888350
     0.356065180         0.100000000         0.719372360
     0.369945680         0.100000000         0.733856370
     0.383826190         0.100000000         0.748340370
     0.397706700         0.100000000         0.762824380
     0.411587210         0.100000000         0.777308390
     0.425467710         0.100000000         0.791792400
     0.439348220         0.100000000         0.806276400
     0.453228730         0.100000000         0.820760410
     0.467109230         0.100000000         0.835244420
     0.480989740         0.100000000         0.849728420
     0.494870250         0.100000000         0.864212430
     0.508750750         0.100000000         0.878696440
     0.522631260         0.100000000         0.893180450
     0.536511770         0.100000000         0.907664450
     0.550392280         0.100000000         0.922148460
     0.564272780         0.100000000         0.936632470
     0.578153290         0.100000000         0.951116480
     0.592033800         0.100000000         0.965600480
     0.605914300         0.100000000         0.980084490
     0.619794810         0.100000000         0.994568500
     0.009656000         0.100000000         0.314423660
     0.023536510         0.100000000         0.328907660
     0.037417020         0.100000000         0.343391670
     0.051297530         0.100000000         0.357875680
     0.065178030         0.100000000         0.372359690
     0.079058540         0.100000000         0.386843690
     0.092939050         0.100000000         0.401327700
     0.106819550         0.100000000         0.415811710
     0.120700060         0.100000000         0.430295720
     0.134580570         0.100000000         0.444779720
     0.148461070         0.100000000         0.459263730
     0.162341580         0.100000000         0.473747740
     0.176222090         0.100000000         0.488231740
     0.190102600         0.100000000         0.502715750
     0.203983100         0.100000000         0.517199760
     0.217863610         0.100000000         0.531683770
     0.231744120         0.100000000         0.546167770
     0.245624620         0.100000000         0.560651780
     0.259505130         0.100000000         0.575135790
     0.273385640         0.100000000         0.589619790
     0.287266140         0.100000000         0.604103800
     0.301146650         0.100000000         0.618587810
     0.315027160         0.100000000         0.633071820
     0.328907660         0.100000000         0.647555820
     0.342788170         0.100000000         0.662039830
     0.356668680         0.100000000         0.676523840
     0.370549190         0.100000000         0.691007850
     0.384429690         0.100000000         0.705491850
     0.398310200         0.100000000         0.719975860
     0.412190710         0.100000000         0.734459870
     0.426071210         0.100000000         0.748943870
     0.439951720         0.100000000         0.763427880
     0.453832230         0.100000000         0.777911890
     0.467712730         0.100000000         0.792395900
     0.481593240         0.100000000         0.806879900
     0.495473750         0.100000000         0.821363910
     0.509354250         0.100000000         0.835847920
     0.523234760         0.100000000         0.850331930
     0.537115270         0.100000000         0.864815930
     0.550995780         0.100000000         0.879299940
     0.564876280         0.100000000         0.893783950
     0.578756790         0.100000000         0.908267950
     0.592637300         0.100000000         0.922751960
     0.606517800         0.100000000         0.937235970
     0.620398310         0.100000000         0.951719980
     0.634278820         0.100000000         0.966203980
     0.648159320         0.100000000         0.980687990
     0.662039830         0.100000000         0.995172000
     0.010259510         0.100000000         0.271575140
     0.024140010         0.100000000         0.286059140
     0.038020520         0.100000000         0.300543150
     0.051901030         0.100000000         0.315027160
     0.065781530         0.100000000         0.329511160
     0.079662040         0.100000000         0.343995170
     0.093542550         0.100000000         0.358479180
     0.107423050         0.100000000         0.372963190
     0.121303560         0.100000000         0.387447190
     0.135184070         0.100000000         0.401931200
     0.149064570         0.100000000         0.416415210
     0.162945080         0.100000000         0.430899220
     0.176825590         0.100000000         0.445383220
     0.190706100         0.100000000         0.459867230
     0.204586600         0.100000000         0.474351240
     0.218467110         0.100000000         0.488835240
     0.232347620         0.100000000         0.503319250
     0.246228120         0.100000000         0.517803260
     0.260108630         0.100000000         0.532287270
     0.273989140         0.100000000         0.546771270
     0.287869640         0.100000000         0.561255280
     0.301750150         0.100000000         0.575739290
     0.315630660         0.100000000         0.590223300
     0.329511160         0.100000000         0.604707300
     0.343391670         0.100000000         0.619191310
     0.357272180         0.100000000         0.633675320
     0.371152690         0.100000000         0.648159320
     0.385033190         0.100000000         0.662643330
     0.398913700         0.100000000         0.677127340
     0.412794210         0.100000000         0.691611350
     0.426674710         0.100000000         0.706095350
     0.440555220         0.100000000         0.720579360
     0.454435730         0.100000000         0.735063370
     0.468316230         0.100000000         0.749547370
     0.482196740         0.100000000         0.764031380
     0.496077250         0.100000000         0.778515390
     0.509957750         0.100000000         0.792999400
     0.523838260         0.100000000         0.807483400
     0.537718770         0.100000000         0.821967410
     0.551599280         0.100000000         0.836451420
     0.565479780         0.100000000         0.850935430
     0.579360290         0.100000000         0.865419430
     0.593240800         0.100000000         0.879903440
     0.607121300         0.100000000         0.894387450
     0.621001810         0.100000000         0.908871450
     0.634882320         0.100000000         0.923355460
     0.648762820         0.100000000         0.937839470
     0.662643330         0.100000000         0.952323480
     0.676523840         0.100000000         0.966807480
     0.690404350         0.100000000         0.981291490
     0.704284850         0.100000000         0.995775500
     0.010863010         0.100000000         0.228726610
     0.024743510         0.100000000         0.243210620
     0.038624020         0.100000000         0.257694630
     0.052504530         0.100000000         0.272178640
     0.066385030         0.100000000         0.286662640
     0.080265540         0.100000000         0.301146650
     0.094146050         0.100000000         0.315630660
     0.108026550         0.100000000         0.330114670
     0.121907060         0.100000000         0.344598670
     0.135787570         0.100000000         0.359082680
     0.149668070         0.100000000         0.373566690
     0.163548580         0.100000000         0.388050690
     0.177429090         0.100000000         0.402534700
     0.191309600         0.100000000         0.417018710
     0.205190100         0.100000000         0.431502720
     0.219070610         0.100000000         0.445986720
     0.232951120         0.100000000         0.460470730
     0.246831620         0.100000000         0.474954740
     0.260712130         0.100000000         0.489438740
     0.274592640         0.100000000         0.503922750
     0.288473140         0.100000000         0.518406760
     0.302353650         0.100000000         0.532890770
     0.316234160         0.100000000         0.547374770
     0.330114670         0.100000000         0.561858780
     0.343995170         0.100000000         0.576342790
     0.357875680         0.100000000         0.590826800
     0.371756190         0.100000000         0.605310800
     0.385636690         0.100000000         0.619794810
     0.399517200         0.100000000         0.634278820
     0.413397710         0.100000000         0.648762820
     0.427278210         0.100000000         0.663246830
     0.441158720         0.100000000         0.677730840
     0.455039230         0.100000000         0.692214850
     0.468919730         0.100000000         0.706698850
     0.482800240         0.100000000         0.721182860
     0.496680750         0.100000000         0.735666870
     0.510561260         0.100000000         0.750150880
     0.524441760         0.100000000         0.764634880
     0.538322270         0.100000000         0.779118890
     0.552202780         0.100000000         0.793602900
     0.566083280         0.100000000         0.808086900
     0.579963790         0.100000000         0.822570910
     0.593844300         0.100000000         0.837054920
     0.607724800         0.100000000         0.851538930
     0.621605310         0.100000000         0.866022930
     0.635485820         0.100000000         0.880506940
     0.649366320         0.100000000         0.894990950
     0.663246830         0.100000000         0.909474950
     0.677127340         0.100000000         0.923958960
     0.691007850         0.100000000         0.938442970
     0.704888350         0.100000000         0.952926980
     0.718768860         0.100000000         0.967410980
     0.732649370         0.100000000         0.981894990
     0.746529870         0.100000000         0.996379000