Generated by Twist2D
    1.0
      20.90575000      10.64994740       0.00000000
       1.22975000      23.42988429       0.00000000
       0.00000000       0.00000000      30.00000000
    C
    364
Direct
     0.01098901     0.81318681     0.10000000
     0.06593407     0.87912088     0.10000000
     0.12087912     0.94505495     0.10000000
     0.02197802     0.62637363     0.10000000
     0.07692308     0.69230769     0.10000000
     0.13186813     0.75824176     0.10000000
     0.18681319     0.82417582     0.10000000
     0.24175824     0.89010989     0.10000000
     0.29670330     0.95604396     0.10000000
     0.03296703     0.43956044     0.10000000
     0.08791209     0.50549451     0.10000000
     0.14285714     0.57142857     0.10000000
     0.19780220     0.63736264     0.10000000
     0.25274725     0.70329670     0.10000000
     0.30769231     0.76923077     0.10000000
     0.36263736     0.83516484     0.10000000
     0.41758242     0.90109890     0.10000000
     0.47252747     0.96703297     0.10000000
     0.04395604     0.25274725     0.10000000
     0.09890110     0.31868132     0.10000000
     0.15384615     0.38461538     0.10000000
     0.20879121     0.45054945     0.10000000
     0.26373626     0.51648352     0.10000000
     0.31868132     0.58241758     0.10000000
     0.37362637     0.64835165     0.10000000
     0.42857143     0.71428571     0.10000000
     0.48351648     0.78021978     0.10000000
     0.53846154     0.84615385     0.10000000
     0.59340659     0.91208791     0.10000000
     0.64835165     0.97802198     0.10000000
     0.00000000     0.00000000     0.10000000
     0.05494505     0.06593407     0.10000000
     0.10989011     0.13186813     0.10000000
     0.16483516     0.19780220     0.10000000
     0.21978022     0.26373626     0.10000000
     0.27472527     0.32967033     0.10000000
     0.32967033     0.39560440     0.10000000
     0.38461538     0.46153846     0.10000000
     0.43956044     0.52747253     0.10000000
     0.49450549     0.59340659     0.10000000
     0.54945055     0.65934066     0.10000000
     0.60439560     0.72527473     0.10000000
     0.65934066     0.79120879     0.10000000
     0.71428571     0.85714286     0.10000000
     0.76923077     0.92307692     0.10000000
     0.82417582     0.98901099     0.10000000
     0.17582418     0.01098901     0.10000000
     0.23076923     0.07692308     0.10000000
     0.28571429     0.14285714     0.10000000
     0.34065934     0.20879121     0.10000000
     0.39560440     0.27472527     0.10000000
     0.45054945     0.34065934     0.10000000
     0.50549451     0.40659341     0.10000000
     0.56043956     0.47252747     0.10000000
     0.61538462     0.53846154     0.10000000
     0.67032967     0.60439560     0.10000000
     0.72527473     0.67032967     0.10000000
     0.78021978     0.73626374     0.10000000
     0.83516484     0.80219780     0.10000000
     0.89010989     0.86813187     0.10000000
     0.94505495     0.93406593     0.10000000
     0.35164835     0.02197802     0.10000000
     0.40659341     0.08791209     0.10000000
     0.46153846     0.15384615     0.10000000
     0.51648352     0.21978022     0.10000000
     0.57142857     0.28571429     0.10000000
     0.62637363     0.35164835     0.10000000
     0.68131868     0.41758242     0.10000000
     0.73626374     0.48351648     0.10000000
     0.79120879     0.54945055     0.10000000
     0.84615385     0.61538462     0.10000000
     0.90109890     0.68131868     0.10000000
     0.95604396     0.74725275     0.10000000
     0.52747253     0.03296703     0.10000000
     0.58241758     0.09890110     0.10000000
     0.63736264     0.16483516     0.10000000
     0.69230769     0.23076923     0.10000000
     0.74725275     0.29670330     0.10000000
     0.80219780     0.36263736     0.10000000
     0.85714286     0.42857143     0.10000000
     0.91208791     0.49450549     0.10000000
     0.96703297     0.56043956     0.10000000
     0.70329670     0.04395604     0.10000000
     0.75824176     0.10989011     0.10000000
     0.81318681     0.17582418     0.10000000
     0.86813187     0.24175824     0.10000000
     0.92307692     0.30769231     0.10000000
     0.97802198     0.37362637     0.10000000
     0.87912088     0.05494505     0.10000000
     0.93406593     0.12087912     0.10000000
     0.98901099     0.18681319     0.10000000
     0.12820513     0.82051282     0.10000000
     0.18315018     0.88644688     0.10000000
     0.23809524     0.95238095     0.10000000
     0.13919414     0.63369963     0.10000000
     0.19413919     0.69963370     0.10000000
     0.24908425     0.76556776     0.10000000
     0.30402930     0.83150183     0.10000000
     0.35897436     0.89743589     0.10000000
     0.41391941     0.96336996     0.10000000
     0.15018315     0.44688644     0.10000000
     0.20512821     0.51282051     0.10000000
     0.26007326     0.57875458     0.10000000
     0.31501832     0.64468864     0.10000000
     0.36996337     0.71062271     0.10000000
     0.42490843     0.77655677     0.10000000
     0.47985348     0.84249084     0.10000000
     0.53479854     0.90842490     0.10000000
     0.58974359     0.97435897     0.10000000
     0.16117216     0.26007326     0.10000000
     0.21611722     0.32600732     0.10000000
     0.27106227     0.39194139     0.10000000
     0.32600733     0.45787545     0.10000000
     0.38095238     0.52380952     0.10000000
     0.43589744     0.58974359     0.10000000
     0.49084249     0.65567765     0.10000000
     0.54578755     0.72161172     0.10000000
     0.60073260     0.78754578     0.10000000
     0.65567766     0.85347985     0.10000000
     0.71062271     0.91941392     0.10000000
     0.76556777     0.98534798     0.10000000
     0.11721612     0.00732600     0.10000000
     0.17216117     0.07326007     0.10000000
     0.22710623     0.13919414     0.10000000
     0.28205128     0.20512820     0.10000000
     0.33699634     0.27106227     0.10000000
     0.39194139     0.33699633     0.10000000
     0.44688645     0.40293040     0.10000000
     0.50183150     0.46886447     0.10000000
     0.55677656     0.53479853     0.10000000
     0.61172161     0.60073260     0.10000000
     0.66666667     0.66666666     0.10000000
     0.72161172     0.73260073     0.10000000
     0.77655678     0.79853479     0.10000000
     0.83150183     0.86446886     0.10000000
     0.88644689     0.93040293     0.10000000
     0.94139194     0.99633699     0.10000000
     0.29304029     0.01831501     0.10000000
     0.34798535     0.08424908     0.10000000
     0.40293040     0.15018315     0.10000000
     0.45787546     0.21611721     0.10000000
     0.51282051     0.28205128     0.10000000
     0.56776557     0.34798534     0.10000000
     0.62271062     0.41391941     0.10000000
     0.67765568     0.47985348     0.10000000
     0.73260073     0.54578754     0.10000000
     0.78754579     0.61172161     0.10000000
     0.84249084     0.67765567     0.10000000
     0.89743590     0.74358974     0.10000000
     0.95238095     0.80952381     0.10000000
     1.00732601     0.87545787     0.10000000
     1.06227106     0.94139194     0.10000000
     0.46886447     0.02930403     0.10000000
     0.52380952     0.09523809     0.10000000
     0.57875458     0.16117216     0.10000000
     0.63369963     0.22710622     0.10000000
     0.68864469     0.29304029     0.10000000
     0.74358974     0.35897436     0.10000000
     0.79853480     0.42490842     0.10000000
     0.85347985     0.49084249     0.10000000
     0.90842491     0.55677655     0.10000000
     0.96336996     0.62271062     0.10000000
     1.01831502     0.68864468     0.10000000
     1.07326007     0.75457875     0.10000000
     0.64468864     0.04029304     0.10000000
     0.69963370     0.10622710     0.10000000
     0.75457875     0.17216117     0.10000000
     0.80952381     0.23809523     0.10000000
     0.86446886     0.30402930     0.10000000
     0.91941392     0.36996337     0.10000000
     0.97435897     0.43589743     0.10000000
     1.02930403     0.50183150     0.10000000
     1.08424908     0.56776556     0.10000000
     0.82051282     0.05128205     0.10000000
     0.87545788     0.11721611     0.10000000
     0.93040293     0.18315018     0.10000000
     0.98534799     0.24908425     0.10000000
     1.04029304     0.31501831     0.10000000
     1.09523810     0.38095238     0.10000000
     0.99633700     0.06227106     0.10000000
     1.05128205     0.12820512     0.10000000
     1.10622711     0.19413919     0.10000000
     0.05494505     0.87912088     0.21361333
     0.12087912     0.93406593     0.21361333
     0.18681319     0.98901099     0.21361333
     0.04395604     0.70329670     0.21361333
     0.10989011     0.75824176     0.21361333
     0.17582418     0.81318681     0.21361333
     0.24175824     0.86813187     0.21361333
     0.30769231     0.92307692     0.21361333
     0.37362637     0.97802198     0.21361333
     0.03296703     0.52747253     0.21361333
     0.09890110     0.58241758     0.21361333
     0.16483516     0.63736264     0.21361333
     0.23076923     0.69230769     0.21361333
     0.29670330     0.74725275     0.21361333
     0.36263736     0.80219780     0.21361333
     0.42857143     0.85714286     0.21361333
     0.49450549     0.91208791     0.21361333
     0.56043956     0.96703297     0.21361333
     0.02197802     0.35164835     0.21361333
     0.08791209     0.40659341     0.21361333
     0.15384615     0.46153846     0.21361333
     0.21978022     0.51648352     0.21361333
     0.28571429     0.57142857     0.21361333
     0.35164835     0.62637363     0.21361333
     0.41758242     0.68131868     0.21361333
     0.48351648     0.73626374     0.21361333
     0.54945055     0.79120879     0.21361333
     0.61538462     0.84615385     0.21361333
     0.68131868     0.90109890     0.21361333
     0.74725275     0.95604396     0.21361333
     0.01098901     0.17582418     0.21361333
     0.07692308     0.23076923     0.21361333
     0.14285714     0.28571429     0.21361333
     0.20879121     0.34065934     0.21361333
     0.27472527     0.39560440     0.21361333
     0.34065934     0.45054945     0.21361333
     0.40659341     0.50549451     0.21361333
     0.47252747     0.56043956     0.21361333
     0.53846154     0.61538462     0.21361333
     0.60439560     0.67032967     0.21361333
     0.67032967     0.72527473     0.21361333
     0.73626374     0.78021978     0.21361333
     0.80219780     0.83516484     0.21361333
     0.86813187     0.89010989     0.21361333
     0.93406593     0.94505495     0.21361333
     0.00000000     0.00000000     0.21361333
     0.06593407     0.05494505     0.21361333
     0.13186813     0.10989011     0.21361333
     0.19780220     0.16483516     0.21361333
     0.26373626     0.21978022     0.21361333
     0.32967033     0.27472527     0.21361333
     0.39560440     0.32967033     0.21361333
     0.46153846     0.38461538     0.21361333
     0.52747253     0.43956044     0.21361333
     0.59340659     0.49450549     0.21361333
     0.65934066     0.54945055     0.21361333
     0.72527473     0.60439560     0.21361333
     0.79120879     0.65934066     0.21361333
     0.85714286     0.71428571     0.21361333
     0.92307692     0.76923077     0.21361333
     0.98901099     0.82417582     0.21361333
     0.25274725     0.04395604     0.21361333
     0.31868132     0.09890110     0.21361333
     0.38461538     0.15384615     0.21361333
     0.45054945     0.20879121     0.21361333
     0.51648352     0.26373626     0.21361333
     0.58241758     0.31868132     0.21361333
     0.64835165     0.37362637     0.21361333
     0.71428571     0.42857143     0.21361333
     0.78021978     0.48351648     0.21361333
     0.84615385     0.53846154     0.21361333
     0.91208791     0.59340659     0.21361333
     0.97802198     0.64835165     0.21361333
     0.43956044     0.03296703     0.21361333
     0.50549451     0.08791209     0.21361333
     0.57142857     0.14285714     0.21361333
     0.63736264     0.19780220     0.21361333
     0.70329670     0.25274725     0.21361333
     0.76923077     0.30769231     0.21361333
     0.83516484     0.36263736     0.21361333
     0.90109890     0.41758242     0.21361333
     0.96703297     0.47252747     0.21361333
     0.62637363     0.02197802     0.21361333
     0.69230769     0.07692308     0.21361333
     0.75824176     0.13186813     0.21361333
     0.82417582     0.18681319     0.21361333
     0.89010989     0.24175824     0.21361333
     0.95604396     0.29670330     0.21361333
     0.81318681     0.01098901     0.21361333
     0.87912088     0.06593407     0.21361333
     0.94505495     0.12087912     0.21361333
     0.17948718     0.87179487     0.21361333
     0.24542125     0.92673992     0.21361333
     0.31135531     0.98168498     0.21361333
     0.16849817     0.69597069     0.21361333
     0.23443223     0.75091575     0.21361333
     0.30036630     0.80586080     0.21361333
     0.36630037     0.86080586     0.21361333
     0.43223443     0.91575091     0.21361333
     0.49816850     0.97069597     0.21361333
     0.15750916     0.52014652     0.21361333
     0.22344322     0.57509157     0.21361333
     0.28937729     0.63003663     0.21361333
     0.35531136     0.68498168     0.21361333
     0.42124542     0.73992674     0.21361333
     0.48717949     0.79487179     0.21361333
     0.55311355     0.84981685     0.21361333
     0.61904762     0.90476190     0.21361333
     0.68498168     0.95970696     0.21361333
     0.14652015     0.34432234     0.21361333
     0.21245421     0.39926740     0.21361333
     0.27838828     0.45421245     0.21361333
     0.34432234     0.50915751     0.21361333
     0.41025641     0.56410256     0.21361333
     0.47619048     0.61904762     0.21361333
     0.54212454     0.67399267     0.21361333
     0.60805861     0.72893773     0.21361333
     0.67399267     0.78388278     0.21361333
     0.73992674     0.83882784     0.21361333
     0.80586081     0.89377289     0.21361333
     0.87179487     0.94871795     0.21361333
     0.13553114     0.16849816     0.21361333
     0.20146520     0.22344322     0.21361333
     0.26739927     0.27838827     0.21361333
     0.33333333     0.33333333     0.21361333
     0.39926740     0.38827838     0.21361333
     0.46520147     0.44322344     0.21361333
     0.53113553     0.49816849     0.21361333
     0.59706960     0.55311355     0.21361333
     0.66300366     0.60805860     0.21361333
     0.72893773     0.66300366     0.21361333
     0.79487179     0.71794871     0.21361333
     0.86080586     0.77289377     0.21361333
     0.92673993     0.82783882     0.21361333
     0.99267399     0.88278388     0.21361333
     1.05860806     0.93772893     0.21361333
     0.12454212    -0.00732601     0.21361333
     0.19047619     0.04761904     0.21361333
     0.25641026     0.10256410     0.21361333
     0.32234432     0.15750915     0.21361333
     0.38827839     0.21245421     0.21361333
     0.45421245     0.26739926     0.21361333
     0.52014652     0.32234432     0.21361333
     0.58608059     0.37728937     0.21361333
     0.65201465     0.43223443     0.21361333
     0.71794872     0.48717948     0.21361333
     0.78388278     0.54212454     0.21361333
     0.84981685     0.59706959     0.21361333
     0.91575092     0.65201465     0.21361333
     0.98168498     0.70695970     0.21361333
     1.04761905     0.76190476     0.21361333
     1.11355311     0.81684981     0.21361333
     0.37728938     0.03663003     0.21361333
     0.44322344     0.09157509     0.21361333
     0.50915751     0.14652014     0.21361333
     0.57509157     0.20146520     0.21361333
     0.64102564     0.25641025     0.21361333
     0.70695971     0.31135531     0.21361333
     0.77289377     0.36630036     0.21361333
     0.83882784     0.42124542     0.21361333
     0.90476190     0.47619047     0.21361333
     0.97069597     0.53113553     0.21361333
     1.03663004     0.58608058     0.21361333
     1.10256410     0.64102564     0.21361333
     0.56410256     0.02564102     0.21361333
     0.63003663     0.08058608     0.21361333
     0.69597070     0.13553113     0.21361333
     0.76190476     0.19047619     0.21361333
     0.82783883     0.24542124     0.21361333
     0.89377289     0.30036630     0.21361333
     0.95970696     0.35531135     0.21361333
     1.02564103     0.41025641     0.21361333
     1.09157509     0.46520146     0.21361333
     0.75091575     0.01465201     0.21361333
     0.81684982     0.06959707     0.21361333
     0.88278388     0.12454212     0.21361333
     0.94871795     0.17948718     0.21361333
     1.01465201     0.23443223     0.21361333
     1.08058608     0.28937729     0.21361333
     0.93772894     0.00366300     0.21361333
     1.00366300     0.05860806     0.21361333
     1.06959707     0.11355311     0.21361333
