Generated by Twist2D
    1.0
      98.38000000      55.37972650       0.00000000
       1.22975000     112.88944247       0.00000000
       0.00000000       0.00000000      30.00000000
    C
    8428
Direct
     0.00047461     0.96203132     0.10000000
     0.01281443     0.97484575     0.10000000
     0.02515425     0.98766018     0.10000000
     0.00094922     0.92406265     0.10000000
     0.01328904     0.93687708     0.10000000
     0.02562886     0.94969150     0.10000000
     0.03796868     0.96250593     0.10000000
     0.05030850     0.97532036     0.10000000
     0.06264832     0.98813479     0.10000000
     0.00142383     0.88609397     0.10000000
     0.01376364     0.89890840     0.10000000
     0.02610346     0.91172283     0.10000000
     0.03844328     0.92453726     0.10000000
     0.05078310     0.93735168     0.10000000
     0.06312292     0.95016611     0.10000000
     0.07546274     0.96298054     0.10000000
     0.08780256     0.97579497     0.10000000
     0.10014238     0.98860940     0.10000000
     0.00189843     0.84812530     0.10000000
     0.01423825     0.86093972     0.10000000
     0.02657807     0.87375415     0.10000000
     0.03891789     0.88656858     0.10000000
     0.05125771     0.89938301     0.10000000
     0.06359753     0.91219744     0.10000000
     0.07593735     0.92501187     0.10000000
     0.08827717     0.93782629     0.10000000
     0.10061699     0.95064072     0.10000000
     0.11295681     0.96345515     0.10000000
     0.12529663     0.97626958     0.10000000
     0.13763645     0.98908401     0.10000000
     0.00237304     0.81015662     0.10000000
     0.01471286     0.82297105     0.10000000
     0.02705268     0.83578548     0.10000000
     0.03939250     0.84859991     0.10000000
     0.05173232     0.86141433     0.10000000
     0.06407214     0.87422876     0.10000000
     0.07641196     0.88704319     0.10000000
     0.08875178     0.89985762     0.10000000
     0.10109160     0.91267205     0.10000000
     0.11343142     0.92548647     0.10000000
     0.12577124     0.93830090     0.10000000
     0.13811106     0.95111533     0.10000000
     0.15045088     0.96392976     0.10000000
     0.16279070     0.97674419     0.10000000
     0.17513052     0.98955861     0.10000000
     0.00284765     0.77218794     0.10000000
     0.01518747     0.78500237     0.10000000
     0.02752729     0.79781680     0.10000000
     0.03986711     0.81063123     0.10000000
     0.05220693     0.82344566     0.10000000
     0.06454675     0.83626009     0.10000000
     0.07688657     0.84907451     0.10000000
     0.08922639     0.86188894     0.10000000
     0.10156621     0.87470337     0.10000000
     0.11390603     0.88751780     0.10000000
     0.12624585     0.90033223     0.10000000
     0.13858567     0.91314665     0.10000000
     0.15092549     0.92596108     0.10000000
     0.16326531     0.93877551     0.10000000
     0.17560513     0.95158994     0.10000000
     0.18794495     0.96440437     0.10000000
     0.20028477     0.97721879     0.10000000
     0.21262458     0.99003322     0.10000000
     0.00332226     0.73421927     0.10000000
     0.01566208     0.74703370     0.10000000
     0.02800190     0.75984813     0.10000000
     0.04034172     0.77266255     0.10000000
     0.05268154     0.78547698     0.10000000
     0.06502136     0.79829141     0.10000000
     0.07736118     0.81110584     0.10000000
     0.08970100     0.82392027     0.10000000
     0.10204082     0.83673469     0.10000000
     0.11438064     0.84954912     0.10000000
     0.12672046     0.86236355     0.10000000
     0.13906028     0.87517798     0.10000000
     0.15140009     0.88799241     0.10000000
     0.16373991     0.90080683     0.10000000
     0.17607973     0.91362126     0.10000000
     0.18841955     0.92643569     0.10000000
     0.20075937     0.93925012     0.10000000
     0.21309919     0.95206455     0.10000000
     0.22543901     0.96487897     0.10000000
     0.23777883     0.97769340     0.10000000
     0.25011865     0.99050783     0.10000000
     0.00379687     0.69625059     0.10000000
     0.01613669     0.70906502     0.10000000
     0.02847651     0.72187945     0.10000000
     0.04081633     0.73469388     0.10000000
     0.05315615     0.74750831     0.10000000
     0.06549597     0.76032273     0.10000000
     0.07783579     0.77313716     0.10000000
     0.09017561     0.78595159     0.10000000
     0.10251542     0.79876602     0.10000000
     0.11485524     0.81158045     0.10000000
     0.12719506     0.82439487     0.10000000
     0.13953488     0.83720930     0.10000000
     0.15187470     0.85002373     0.10000000
     0.16421452     0.86283816     0.10000000
     0.17655434     0.87565259     0.10000000
     0.18889416     0.88846701     0.10000000
     0.20123398     0.90128144     0.10000000
     0.21357380     0.91409587     0.10000000
     0.22591362     0.92691030     0.10000000
     0.23825344     0.93972473     0.10000000
     0.25059326     0.95253916     0.10000000
     0.26293308     0.96535358     0.10000000
     0.27527290     0.97816801     0.10000000
     0.28761272     0.99098244     0.10000000
     0.00427148     0.65828192     0.10000000
     0.01661130     0.67109635     0.10000000
     0.02895112     0.68391077     0.10000000
     0.04129093     0.69672520     0.10000000
     0.05363075     0.70953963     0.10000000
     0.06597057     0.72235406     0.10000000
     0.07831039     0.73516849     0.10000000
     0.09065021     0.74798291     0.10000000
     0.10299003     0.76079734     0.10000000
     0.11532985     0.77361177     0.10000000
     0.12766967     0.78642620     0.10000000
     0.14000949     0.79924063     0.10000000
     0.15234931     0.81205505     0.10000000
     0.16468913     0.82486948     0.10000000
     0.17702895     0.83768391     0.10000000
     0.18936877     0.85049834     0.10000000
     0.20170859     0.86331277     0.10000000
     0.21404841     0.87612720     0.10000000
     0.22638823     0.88894162     0.10000000
     0.23872805     0.90175605     0.10000000
     0.25106787     0.91457048     0.10000000
     0.26340769     0.92738491     0.10000000
     0.27574751     0.94019934     0.10000000
     0.28808733     0.95301376     0.10000000
     0.30042715     0.96582819     0.10000000
     0.31276697     0.97864262     0.10000000
     0.32510679     0.99145705     0.10000000
     0.00474608     0.62031324     0.10000000
     0.01708590     0.63312767     0.10000000
     0.02942572     0.64594210     0.10000000
     0.04176554     0.65875653     0.10000000
     0.05410536     0.67157095     0.10000000
     0.06644518     0.68438538     0.10000000
     0.07878500     0.69719981     0.10000000
     0.09112482     0.71001424     0.10000000
     0.10346464     0.72282867     0.10000000
     0.11580446     0.73564309     0.10000000
     0.12814428     0.74845752     0.10000000
     0.14048410     0.76127195     0.10000000
     0.15282392     0.77408638     0.10000000
     0.16516374     0.78690081     0.10000000
     0.17750356     0.79971523     0.10000000
     0.18984338     0.81252966     0.10000000
     0.20218320     0.82534409     0.10000000
     0.21452302     0.83815852     0.10000000
     0.22686284     0.85097295     0.10000000
     0.23920266     0.86378738     0.10000000
     0.25154248     0.87660180     0.10000000
     0.26388230     0.88941623     0.10000000
     0.27622212     0.90223066     0.10000000
     0.28856194     0.91504509     0.10000000
     0.30090176     0.92785952     0.10000000
     0.31324158     0.94067394     0.10000000
     0.32558140     0.95348837     0.10000000
     0.33792121     0.96630280     0.10000000
     0.35026103     0.97911723     0.10000000
     0.36260085     0.99193166     0.10000000
     0.00522069     0.58234457     0.10000000
     0.01756051     0.59515899     0.10000000
     0.02990033     0.60797342     0.10000000
     0.04224015     0.62078785     0.10000000
     0.05457997     0.63360228     0.10000000
     0.06691979     0.64641671     0.10000000
     0.07925961     0.65923113     0.10000000
     0.09159943     0.67204556     0.10000000
     0.10393925     0.68485999     0.10000000
     0.11627907     0.69767442     0.10000000
     0.12861889     0.71048885     0.10000000
     0.14095871     0.72330327     0.10000000
     0.15329853     0.73611770     0.10000000
     0.16563835     0.74893213     0.10000000
     0.17797817     0.76174656     0.10000000
     0.19031799     0.77456099     0.10000000
     0.20265781     0.78737542     0.10000000
     0.21499763     0.80018984     0.10000000
     0.22733745     0.81300427     0.10000000
     0.23967727     0.82581870     0.10000000
     0.25201709     0.83863313     0.10000000
     0.26435691     0.85144756     0.10000000
     0.27669673     0.86426198     0.10000000
     0.28903654     0.87707641     0.10000000
     0.30137636     0.88989084     0.10000000
     0.31371618     0.90270527     0.10000000
     0.32605600     0.91551970     0.10000000
     0.33839582     0.92833412     0.10000000
     0.35073564     0.94114855     0.10000000
     0.36307546     0.95396298     0.10000000
     0.37541528     0.96677741     0.10000000
     0.38775510     0.97959184     0.10000000
     0.40009492     0.99240626     0.10000000
     0.00569530     0.54437589     0.10000000
     0.01803512     0.55719032     0.10000000
     0.03037494     0.57000475     0.10000000
     0.04271476     0.58281917     0.10000000
     0.05505458     0.59563360     0.10000000
     0.06739440     0.60844803     0.10000000
     0.07973422     0.62126246     0.10000000
     0.09207404     0.63407689     0.10000000
     0.10441386     0.64689131     0.10000000
     0.11675368     0.65970574     0.10000000
     0.12909350     0.67252017     0.10000000
     0.14143332     0.68533460     0.10000000
     0.15377314     0.69814903     0.10000000
     0.16611296     0.71096346     0.10000000
     0.17845278     0.72377788     0.10000000
     0.19079260     0.73659231     0.10000000
     0.20313242     0.74940674     0.10000000
     0.21547224     0.76222117     0.10000000
     0.22781206     0.77503560     0.10000000
     0.24015187     0.78785002     0.10000000
     0.25249169     0.80066445     0.10000000
     0.26483151     0.81347888     0.10000000
     0.27717133     0.82629331     0.10000000
     0.28951115     0.83910774     0.10000000
     0.30185097     0.85192216     0.10000000
     0.31419079     0.86473659     0.10000000
     0.32653061     0.87755102     0.10000000
     0.33887043     0.89036545     0.10000000
     0.35121025     0.90317988     0.10000000
     0.36355007     0.91599430     0.10000000
     0.37588989     0.92880873     0.10000000
     0.38822971     0.94162316     0.10000000
     0.40056953     0.95443759     0.10000000
     0.41290935     0.96725202     0.10000000
     0.42524917     0.98006645     0.10000000
     0.43758899     0.99288087     0.10000000
     0.00616991     0.50640721     0.10000000
     0.01850973     0.51922164     0.10000000
     0.03084955     0.53203607     0.10000000
     0.04318937     0.54485050     0.10000000
     0.05552919     0.55766493     0.10000000
     0.06786901     0.57047935     0.10000000
     0.08020883     0.58329378     0.10000000
     0.09254865     0.59610821     0.10000000
     0.10488847     0.60892264     0.10000000
     0.11722829     0.62173707     0.10000000
     0.12956811     0.63455150     0.10000000
     0.14190793     0.64736592     0.10000000
     0.15424775     0.66018035     0.10000000
     0.16658757     0.67299478     0.10000000
     0.17892738     0.68580921     0.10000000
     0.19126720     0.69862364     0.10000000
     0.20360702     0.71143806     0.10000000
     0.21594684     0.72425249     0.10000000
     0.22828666     0.73706692     0.10000000
     0.24062648     0.74988135     0.10000000
     0.25296630     0.76269578     0.10000000
     0.26530612     0.77551020     0.10000000
     0.27764594     0.78832463     0.10000000
     0.28998576     0.80113906     0.10000000
     0.30232558     0.81395349     0.10000000
     0.31466540     0.82676792     0.10000000
     0.32700522     0.83958234     0.10000000
     0.33934504     0.85239677     0.10000000
     0.35168486     0.86521120     0.10000000
     0.36402468     0.87802563     0.10000000
     0.37636450     0.89084006     0.10000000
     0.38870432     0.90365449     0.10000000
     0.40104414     0.91646891     0.10000000
     0.41338396     0.92928334     0.10000000
     0.42572378     0.94209777     0.10000000
     0.43806360     0.95491220     0.10000000
     0.45040342     0.96772663     0.10000000
     0.46274324     0.98054105     0.10000000
     0.47508306     0.99335548     0.10000000
     0.00664452     0.46843854     0.10000000
     0.01898434     0.48125297     0.10000000
     0.03132416     0.49406739     0.10000000
     0.04366398     0.50688182     0.10000000
     0.05600380     0.51969625     0.10000000
     0.06834362     0.53251068     0.10000000
     0.08068344     0.54532511     0.10000000
     0.09302326     0.55813953     0.10000000
     0.10536308     0.57095396     0.10000000
     0.11770290     0.58376839     0.10000000
     0.13004271     0.59658282     0.10000000
     0.14238253     0.60939725     0.10000000
     0.15472235     0.62221168     0.10000000
     0.16706217     0.63502610     0.10000000
     0.17940199     0.64784053     0.10000000
     0.19174181     0.66065496     0.10000000
     0.20408163     0.67346939     0.10000000
     0.21642145     0.68628382     0.10000000
     0.22876127     0.69909824     0.10000000
     0.24110109     0.71191267     0.10000000
     0.25344091     0.72472710     0.10000000
     0.26578073     0.73754153     0.10000000
     0.27812055     0.75035596     0.10000000
     0.29046037     0.76317038     0.10000000
     0.30280019     0.77598481     0.10000000
     0.31514001     0.78879924     0.10000000
     0.32747983     0.80161367     0.10000000
     0.33981965     0.81442810     0.10000000
     0.35215947     0.82724252     0.10000000
     0.36449929     0.84005695     0.10000000
     0.37683911     0.85287138     0.10000000
     0.38917893     0.86568581     0.10000000
     0.40151875     0.87850024     0.10000000
     0.41385857     0.89131467     0.10000000
     0.42619839     0.90412909     0.10000000
     0.43853821     0.91694352     0.10000000
     0.45087803     0.92975795     0.10000000
     0.46321785     0.94257238     0.10000000
     0.47555766     0.95538681     0.10000000
     0.48789748     0.96820123     0.10000000
     0.50023730     0.98101566     0.10000000
     0.51257712     0.99383009     0.10000000
     0.00711913     0.43046986     0.10000000
     0.01945895     0.44328429     0.10000000
     0.03179877     0.45609872     0.10000000
     0.04413859     0.46891315     0.10000000
     0.05647841     0.48172757     0.10000000
     0.06881822     0.49454200     0.10000000
     0.08115804     0.50735643     0.10000000
     0.09349786     0.52017086     0.10000000
     0.10583768     0.53298529     0.10000000
     0.11817750     0.54579972     0.10000000
     0.13051732     0.55861414     0.10000000
     0.14285714     0.57142857     0.10000000
     0.15519696     0.58424300     0.10000000
     0.16753678     0.59705743     0.10000000
     0.17987660     0.60987186     0.10000000
     0.19221642     0.62268628     0.10000000
     0.20455624     0.63550071     0.10000000
     0.21689606     0.64831514     0.10000000
     0.22923588     0.66112957     0.10000000
     0.24157570     0.67394400     0.10000000
     0.25391552     0.68675842     0.10000000
     0.26625534     0.69957285     0.10000000
     0.27859516     0.71238728     0.10000000
     0.29093498     0.72520171     0.10000000
     0.30327480     0.73801614     0.10000000
     0.31561462     0.75083056     0.10000000
     0.32795444     0.76364499     0.10000000
     0.34029426     0.77645942     0.10000000
     0.35263408     0.78927385     0.10000000
     0.36497390     0.80208828     0.10000000
     0.37731372     0.81490271     0.10000000
     0.38965354     0.82771713     0.10000000
     0.40199336     0.84053156     0.10000000
     0.41433318     0.85334599     0.10000000
     0.42667299     0.86616042     0.10000000
     0.43901281     0.87897485     0.10000000
     0.45135263     0.89178927     0.10000000
     0.46369245     0.90460370     0.10000000
     0.47603227     0.91741813     0.10000000
     0.48837209     0.93023256     0.10000000
     0.50071191     0.94304699     0.10000000
     0.51305173     0.95586141     0.10000000
     0.52539155     0.96867584     0.10000000
     0.53773137     0.98149027     0.10000000
     0.55007119     0.99430470     0.10000000
     0.00759374     0.39250119     0.10000000
     0.01993355     0.40531561     0.10000000
     0.03227337     0.41813004     0.10000000
     0.04461319     0.43094447     0.10000000
     0.05695301     0.44375890     0.10000000
     0.06929283     0.45657333     0.10000000
     0.08163265     0.46938776     0.10000000
     0.09397247     0.48220218     0.10000000
     0.10631229     0.49501661     0.10000000
     0.11865211     0.50783104     0.10000000
     0.13099193     0.52064547     0.10000000
     0.14333175     0.53345990     0.10000000
     0.15567157     0.54627432     0.10000000
     0.16801139     0.55908875     0.10000000
     0.18035121     0.57190318     0.10000000
     0.19269103     0.58471761     0.10000000
     0.20503085     0.59753204     0.10000000
     0.21737067     0.61034646     0.10000000
     0.22971049     0.62316089     0.10000000
     0.24205031     0.63597532     0.10000000
     0.25439013     0.64878975     0.10000000
     0.26672995     0.66160418     0.10000000
     0.27906977     0.67441860     0.10000000
     0.29140959     0.68723303     0.10000000
     0.30374941     0.70004746     0.10000000
     0.31608923     0.71286189     0.10000000
     0.32842905     0.72567632     0.10000000
     0.34076887     0.73849075     0.10000000
     0.35310869     0.75130517     0.10000000
     0.36544850     0.76411960     0.10000000
     0.37778832     0.77693403     0.10000000
     0.39012814     0.78974846     0.10000000
     0.40246796     0.80256289     0.10000000
     0.41480778     0.81537731     0.10000000
     0.42714760     0.82819174     0.10000000
     0.43948742     0.84100617     0.10000000
     0.45182724     0.85382060     0.10000000
     0.46416706     0.86663503     0.10000000
     0.47650688     0.87944945     0.10000000
     0.48884670     0.89226388     0.10000000
     0.50118652     0.90507831     0.10000000
     0.51352634     0.91789274     0.10000000
     0.52586616     0.93070717     0.10000000
     0.53820598     0.94352159     0.10000000
     0.55054580     0.95633602     0.10000000
     0.56288562     0.96915045     0.10000000
     0.57522544     0.98196488     0.10000000
     0.58756526     0.99477931     0.10000000
     0.00806834     0.35453251     0.10000000
     0.02040816     0.36734694     0.10000000
     0.03274798     0.38016137     0.10000000
     0.04508780     0.39297579     0.10000000
     0.05742762     0.40579022     0.10000000
     0.06976744     0.41860465     0.10000000
     0.08210726     0.43141908     0.10000000
     0.09444708     0.44423351     0.10000000
     0.10678690     0.45704794     0.10000000
     0.11912672     0.46986236     0.10000000
     0.13146654     0.48267679     0.10000000
     0.14380636     0.49549122     0.10000000
     0.15614618     0.50830565     0.10000000
     0.16848600     0.52112008     0.10000000
     0.18082582     0.53393450     0.10000000
     0.19316564     0.54674893     0.10000000
     0.20550546     0.55956336     0.10000000
     0.21784528     0.57237779     0.10000000
     0.23018510     0.58519222     0.10000000
     0.24252492     0.59800664     0.10000000
     0.25486474     0.61082107     0.10000000
     0.26720456     0.62363550     0.10000000
     0.27954438     0.63644993     0.10000000
     0.29188420     0.64926436     0.10000000
     0.30422402     0.66207879     0.10000000
     0.31656383     0.67489321     0.10000000
     0.32890365     0.68770764     0.10000000
     0.34124347     0.70052207     0.10000000
     0.35358329     0.71333650     0.10000000
     0.36592311     0.72615093     0.10000000
     0.37826293     0.73896535     0.10000000
     0.39060275     0.75177978     0.10000000
     0.40294257     0.76459421     0.10000000
     0.41528239     0.77740864     0.10000000
     0.42762221     0.79022307     0.10000000
     0.43996203     0.80303749     0.10000000
     0.45230185     0.81585192     0.10000000
     0.46464167     0.82866635     0.10000000
     0.47698149     0.84148078     0.10000000
     0.48932131     0.85429521     0.10000000
     0.50166113     0.86710963     0.10000000
     0.51400095     0.87992406     0.10000000
     0.52634077     0.89273849     0.10000000
     0.53868059     0.90555292     0.10000000
     0.55102041     0.91836735     0.10000000
     0.56336023     0.93118178     0.10000000
     0.57570005     0.94399620     0.10000000
     0.58803987     0.95681063     0.10000000
     0.60037969     0.96962506     0.10000000
     0.61271951     0.98243949     0.10000000
     0.62505933     0.99525392     0.10000000
     0.00854295     0.31656383     0.10000000
     0.02088277     0.32937826     0.10000000
     0.03322259     0.34219269     0.10000000
     0.04556241     0.35500712     0.10000000
     0.05790223     0.36782155     0.10000000
     0.07024205     0.38063598     0.10000000
     0.08258187     0.39345040     0.10000000
     0.09492169     0.40626483     0.10000000
     0.10726151     0.41907926     0.10000000
     0.11960133     0.43189369     0.10000000
     0.13194115     0.44470812     0.10000000
     0.14428097     0.45752254     0.10000000
     0.15662079     0.47033697     0.10000000
     0.16896061     0.48315140     0.10000000
     0.18130043     0.49596583     0.10000000
     0.19364025     0.50878026     0.10000000
     0.20598007     0.52159468     0.10000000
     0.21831989     0.53440911     0.10000000
     0.23065971     0.54722354     0.10000000
     0.24299953     0.56003797     0.10000000
     0.25533935     0.57285240     0.10000000
     0.26767916     0.58566682     0.10000000
     0.28001898     0.59848125     0.10000000
     0.29235880     0.61129568     0.10000000
     0.30469862     0.62411011     0.10000000
     0.31703844     0.63692454     0.10000000
     0.32937826     0.64973897     0.10000000
     0.34171808     0.66255339     0.10000000
     0.35405790     0.67536782     0.10000000
     0.36639772     0.68818225     0.10000000
     0.37873754     0.70099668     0.10000000
     0.39107736     0.71381111     0.10000000
     0.40341718     0.72662553     0.10000000
     0.41575700     0.73943996     0.10000000
     0.42809682     0.75225439     0.10000000
     0.44043664     0.76506882     0.10000000
     0.45277646     0.77788325     0.10000000
     0.46511628     0.79069767     0.10000000
     0.47745610     0.80351210     0.10000000
     0.48979592     0.81632653     0.10000000
     0.50213574     0.82914096     0.10000000
     0.51447556     0.84195539     0.10000000
     0.52681538     0.85476981     0.10000000
     0.53915520     0.86758424     0.10000000
     0.55149502     0.88039867     0.10000000
     0.56383484     0.89321310     0.10000000
     0.57617466     0.90602753     0.10000000
     0.58851448     0.91884196     0.10000000
     0.60085430     0.93165638     0.10000000
     0.61319411     0.94447081     0.10000000
     0.62553393     0.95728524     0.10000000
     0.63787375     0.97009967     0.10000000
     0.65021357     0.98291410     0.10000000
     0.66255339     0.99572852     0.10000000
     0.00901756     0.27859516     0.10000000
     0.02135738     0.29140959     0.10000000
     0.03369720     0.30422402     0.10000000
     0.04603702     0.31703844     0.10000000
     0.05837684     0.32985287     0.10000000
     0.07071666     0.34266730     0.10000000
     0.08305648     0.35548173     0.10000000
     0.09539630     0.36829616     0.10000000
     0.10773612     0.38111058     0.10000000
     0.12007594     0.39392501     0.10000000
     0.13241576     0.40673944     0.10000000
     0.14475558     0.41955387     0.10000000
     0.15709540     0.43236830     0.10000000
     0.16943522     0.44518272     0.10000000
     0.18177504     0.45799715     0.10000000
     0.19411486     0.47081158     0.10000000
     0.20645467     0.48362601     0.10000000
     0.21879449     0.49644044     0.10000000
     0.23113431     0.50925486     0.10000000
     0.24347413     0.52206929     0.10000000
     0.25581395     0.53488372     0.10000000
     0.26815377     0.54769815     0.10000000
     0.28049359     0.56051258     0.10000000
     0.29283341     0.57332701     0.10000000
     0.30517323     0.58614143     0.10000000
     0.31751305     0.59895586     0.10000000
     0.32985287     0.61177029     0.10000000
     0.34219269     0.62458472     0.10000000
     0.35453251     0.63739915     0.10000000
     0.36687233     0.65021357     0.10000000
     0.37921215     0.66302800     0.10000000
     0.39155197     0.67584243     0.10000000
     0.40389179     0.68865686     0.10000000
     0.41623161     0.70147129     0.10000000
     0.42857143     0.71428571     0.10000000
     0.44091125     0.72710014     0.10000000
     0.45325107     0.73991457     0.10000000
     0.46559089     0.75272900     0.10000000
     0.47793071     0.76554343     0.10000000
     0.49027053     0.77835785     0.10000000
     0.50261035     0.79117228     0.10000000
     0.51495017     0.80398671     0.10000000
     0.52728999     0.81680114     0.10000000
     0.53962981     0.82961557     0.10000000
     0.55196963     0.84243000     0.10000000
     0.56430944     0.85524442     0.10000000
     0.57664926     0.86805885     0.10000000
     0.58898908     0.88087328     0.10000000
     0.60132890     0.89368771     0.10000000
     0.61366872     0.90650214     0.10000000
     0.62600854     0.91931656     0.10000000
     0.63834836     0.93213099     0.10000000
     0.65068818     0.94494542     0.10000000
     0.66302800     0.95775985     0.10000000
     0.67536782     0.97057428     0.10000000
     0.68770764     0.98338870     0.10000000
     0.70004746     0.99620313     0.10000000
     0.00949217     0.24062648     0.10000000
     0.02183199     0.25344091     0.10000000
     0.03417181     0.26625534     0.10000000
     0.04651163     0.27906977     0.10000000
     0.05885145     0.29188420     0.10000000
     0.07119127     0.30469862     0.10000000
     0.08353109     0.31751305     0.10000000
     0.09587091     0.33032748     0.10000000
     0.10821073     0.34314191     0.10000000
     0.12055055     0.35595634     0.10000000
     0.13289037     0.36877076     0.10000000
     0.14523019     0.38158519     0.10000000
     0.15757000     0.39439962     0.10000000
     0.16990982     0.40721405     0.10000000
     0.18224964     0.42002848     0.10000000
     0.19458946     0.43284290     0.10000000
     0.20692928     0.44565733     0.10000000
     0.21926910     0.45847176     0.10000000
     0.23160892     0.47128619     0.10000000
     0.24394874     0.48410062     0.10000000
     0.25628856     0.49691505     0.10000000
     0.26862838     0.50972947     0.10000000
     0.28096820     0.52254390     0.10000000
     0.29330802     0.53535833     0.10000000
     0.30564784     0.54817276     0.10000000
     0.31798766     0.56098719     0.10000000
     0.33032748     0.57380161     0.10000000
     0.34266730     0.58661604     0.10000000
     0.35500712     0.59943047     0.10000000
     0.36734694     0.61224490     0.10000000
     0.37968676     0.62505933     0.10000000
     0.39202658     0.63787375     0.10000000
     0.40436640     0.65068818     0.10000000
     0.41670622     0.66350261     0.10000000
     0.42904604     0.67631704     0.10000000
     0.44138586     0.68913147     0.10000000
     0.45372568     0.70194589     0.10000000
     0.46606550     0.71476032     0.10000000
     0.47840532     0.72757475     0.10000000
     0.49074514     0.74038918     0.10000000
     0.50308495     0.75320361     0.10000000
     0.51542477     0.76601804     0.10000000
     0.52776459     0.77883246     0.10000000
     0.54010441     0.79164689     0.10000000
     0.55244423     0.80446132     0.10000000
     0.56478405     0.81727575     0.10000000
     0.57712387     0.83009018     0.10000000
     0.58946369     0.84290460     0.10000000
     0.60180351     0.85571903     0.10000000
     0.61414333     0.86853346     0.10000000
     0.62648315     0.88134789     0.10000000
     0.63882297     0.89416232     0.10000000
     0.65116279     0.90697674     0.10000000
     0.66350261     0.91979117     0.10000000
     0.67584243     0.93260560     0.10000000
     0.68818225     0.94542003     0.10000000
     0.70052207     0.95823446     0.10000000
     0.71286189     0.97104888     0.10000000
     0.72520171     0.98386331     0.10000000
     0.73754153     0.99667774     0.10000000
     0.00996678     0.20265781     0.10000000
     0.02230660     0.21547224     0.10000000
     0.03464642     0.22828666     0.10000000
     0.04698624     0.24110109     0.10000000
     0.05932606     0.25391552     0.10000000
     0.07166588     0.26672995     0.10000000
     0.08400570     0.27954438     0.10000000
     0.09634551     0.29235880     0.10000000
     0.10868533     0.30517323     0.10000000
     0.12102515     0.31798766     0.10000000
     0.13336497     0.33080209     0.10000000
     0.14570479     0.34361652     0.10000000
     0.15804461     0.35643094     0.10000000
     0.17038443     0.36924537     0.10000000
     0.18272425     0.38205980     0.10000000
     0.19506407     0.39487423     0.10000000
     0.20740389     0.40768866     0.10000000