Generated by Twist2D
1.0
       76.2444996070        42.5997893904         0.0000000000
      -14.6326956201        26.1893913425         0.0000000000
       38.1222498035        21.2998946952        75.6371227132
    C
 5044
Direct
     0.000793020         0.100000000         0.950832670
     0.016653450         0.100000000         0.967486120
     0.032513880         0.100000000         0.984139570
     0.001586040         0.100000000         0.901665340
     0.017446470         0.100000000         0.918318790
     0.033306900         0.100000000         0.934972240
     0.049167330         0.100000000         0.951625690
     0.065027760         0.100000000         0.968279140
     0.080888180         0.100000000         0.984932590
     0.002379060         0.100000000         0.852498020
     0.018239490         0.100000000         0.869151470
     0.034099920         0.100000000         0.885804920
     0.049960350         0.100000000         0.902458370
     0.065820780         0.100000000         0.919111820
     0.081681210         0.100000000         0.935765270
     0.097541630         0.100000000         0.952418720
     0.113402060         0.100000000         0.969072160
     0.129262490         0.100000000         0.985725610
     0.003172090         0.100000000         0.803330690
     0.019032510         0.100000000         0.819984140
     0.034892940         0.100000000         0.836637590
     0.050753370         0.100000000         0.853291040
     0.066613800         0.100000000         0.869944490
     0.082474230         0.100000000         0.886597940
     0.098334660         0.100000000         0.903251390
     0.114195080         0.100000000         0.919904840
     0.130055510         0.100000000         0.936558290
     0.145915940         0.100000000         0.953211740
     0.161776370         0.100000000         0.969865190
     0.177636800         0.100000000         0.986518640
     0.003965110         0.100000000         0.754163360
     0.019825540         0.100000000         0.770816810
     0.035685960         0.100000000         0.787470260
     0.051546390         0.100000000         0.804123710
     0.067406820         0.100000000         0.820777160
     0.083267250         0.100000000         0.837430610
     0.099127680         0.100000000         0.854084060
     0.114988100         0.100000000         0.870737510
     0.130848530         0.100000000         0.887390960
     0.146708960         0.100000000         0.904044410
     0.162569390         0.100000000         0.920697860
     0.178429820         0.100000000         0.937351310
     0.194290250         0.100000000         0.954004760
     0.210150670         0.100000000         0.970658210
     0.226011100         0.100000000         0.987311660
     0.004758130         0.100000000         0.704996030
     0.020618560         0.100000000         0.721649480
     0.036478980         0.100000000         0.738302930
     0.052339410         0.100000000         0.754956380
     0.068199840         0.100000000         0.771609830
     0.084060270         0.100000000         0.788263280
     0.099920700         0.100000000         0.804916730
     0.115781130         0.100000000         0.821570180
     0.131641550         0.100000000         0.838223630
     0.147501980         0.100000000         0.854877080
     0.163362410         0.100000000         0.871530530
     0.179222840         0.100000000         0.888183980
     0.195083270         0.100000000         0.904837430
     0.210943700         0.100000000         0.921490880
     0.226804120         0.100000000         0.938144330
     0.242664550         0.100000000         0.954797780
     0.258524980         0.100000000         0.971451230
     0.274385410         0.100000000         0.988104680
     0.005551150         0.100000000         0.655828710
     0.021411580         0.100000000         0.672482160
     0.037272010         0.100000000         0.689135610
     0.053132430         0.100000000         0.705789060
     0.068992860         0.100000000         0.722442510
     0.084853290         0.100000000         0.739095960
     0.100713720         0.100000000         0.755749410
     0.116574150         0.100000000         0.772402850
     0.132434580         0.100000000         0.789056300
     0.148295000         0.100000000         0.805709750
     0.164155430         0.100000000         0.822363200
     0.180015860         0.100000000         0.839016650
     0.195876290         0.100000000         0.855670100
     0.211736720         0.100000000         0.872323550
     0.227597150         0.100000000         0.888977000
     0.243457570         0.100000000         0.905630450
     0.259318000         0.100000000         0.922283900
     0.275178430         0.100000000         0.938937350
     0.291038860         0.100000000         0.955590800
     0.306899290         0.100000000         0.972244250
     0.322759710         0.100000000         0.988897700
     0.006344170         0.100000000         0.606661380
     0.022204600         0.100000000         0.623314830
     0.038065030         0.100000000         0.639968280
     0.053925460         0.100000000         0.656621730
     0.069785880         0.100000000         0.673275180
     0.085646310         0.100000000         0.689928630
     0.101506740         0.100000000         0.706582080
     0.117367170         0.100000000         0.723235530
     0.133227600         0.100000000         0.739888980
     0.149088030         0.100000000         0.756542430
     0.164948450         0.100000000         0.773195880
     0.180808880         0.100000000         0.789849330
     0.196669310         0.100000000         0.806502780
     0.212529740         0.100000000         0.823156230
     0.228390170         0.100000000         0.839809670
     0.244250590         0.100000000         0.856463120
     0.260111020         0.100000000         0.873116570
     0.275971450         0.100000000         0.889770020
     0.291831880         0.100000000         0.906423470
     0.307692310         0.100000000         0.923076920
     0.323552740         0.100000000         0.939730370
     0.339413160         0.100000000         0.956383820
     0.355273590         0.100000000         0.973037270
     0.371134020         0.100000000         0.989690720
     0.007137190         0.100000000         0.557494050
     0.022997620         0.100000000         0.574147500
     0.038858050         0.100000000         0.590800950
     0.054718480         0.100000000         0.607454400
     0.070578910         0.100000000         0.624107850
     0.086439330         0.100000000         0.640761300
     0.102299760         0.100000000         0.657414750
     0.118160190         0.100000000         0.674068200
     0.134020620         0.100000000         0.690721650
     0.149881050         0.100000000         0.707375100
     0.165741480         0.100000000         0.724028550
     0.181601900         0.100000000         0.740682000
     0.197462330         0.100000000         0.757335450
     0.213322760         0.100000000         0.773988900
     0.229183190         0.100000000         0.790642350
     0.245043620         0.100000000         0.807295800
     0.260904040         0.100000000         0.823949250
     0.276764470         0.100000000         0.840602700
     0.292624900         0.100000000         0.857256150
     0.308485330         0.100000000         0.873909600
     0.324345760         0.100000000         0.890563050
     0.340206190         0.100000000         0.907216490
     0.356066610         0.100000000         0.923869940
     0.371927040         0.100000000         0.940523390
     0.387787470         0.100000000         0.957176840
     0.403647900         0.100000000         0.973830290
     0.419508330         0.100000000         0.990483740
     0.007930210         0.100000000         0.508326720
     0.023790640         0.100000000         0.524980170
     0.039651070         0.100000000         0.541633620
     0.055511500         0.100000000         0.558287070
     0.071371930         0.100000000         0.574940520
     0.087232360         0.100000000         0.591593970
     0.103092780         0.100000000         0.608247420
     0.118953210         0.100000000         0.624900870
     0.134813640         0.100000000         0.641554320
     0.150674070         0.100000000         0.658207770
     0.166534500         0.100000000         0.674861220
     0.182394920         0.100000000         0.691514670
     0.198255350         0.100000000         0.708168120
     0.214115780         0.100000000         0.724821570
     0.229976210         0.100000000         0.741475020
     0.245836640         0.100000000         0.758128470
     0.261697070         0.100000000         0.774781920
     0.277557490         0.100000000         0.791435370
     0.293417920         0.100000000         0.808088820
     0.309278350         0.100000000         0.824742270
     0.325138780         0.100000000         0.841395720
     0.340999210         0.100000000         0.858049170
     0.356859640         0.100000000         0.874702620
     0.372720060         0.100000000         0.891356070
     0.388580490         0.100000000         0.908009520
     0.404440920         0.100000000         0.924662970
     0.420301350         0.100000000         0.941316420
     0.436161780         0.100000000         0.957969870
     0.452022200         0.100000000         0.974623310
     0.467882630         0.100000000         0.991276760
     0.008723240         0.100000000         0.459159400
     0.024583660         0.100000000         0.475812850
     0.040444090         0.100000000         0.492466300
     0.056304520         0.100000000         0.509119750
     0.072164950         0.100000000         0.525773200
     0.088025380         0.100000000         0.542426650
     0.103885800         0.100000000         0.559080100
     0.119746230         0.100000000         0.575733540
     0.135606660         0.100000000         0.592386990
     0.151467090         0.100000000         0.609040440
     0.167327520         0.100000000         0.625693890
     0.183187950         0.100000000         0.642347340
     0.199048370         0.100000000         0.659000790
     0.214908800         0.100000000         0.675654240
     0.230769230         0.100000000         0.692307690
     0.246629660         0.100000000         0.708961140
     0.262490090         0.100000000         0.725614590
     0.278350520         0.100000000         0.742268040
     0.294210940         0.100000000         0.758921490
     0.310071370         0.100000000         0.775574940
     0.325931800         0.100000000         0.792228390
     0.341792230         0.100000000         0.808881840
     0.357652660         0.100000000         0.825535290
     0.373513080         0.100000000         0.842188740
     0.389373510         0.100000000         0.858842190
     0.405233940         0.100000000         0.875495640
     0.421094370         0.100000000         0.892149090
     0.436954800         0.100000000         0.908802540
     0.452815230         0.100000000         0.925455990
     0.468675650         0.100000000         0.942109440
     0.484536080         0.100000000         0.958762890
     0.500396510         0.100000000         0.975416340
     0.516256940         0.100000000         0.992069790
     0.009516260         0.100000000         0.409992070
     0.025376690         0.100000000         0.426645520
     0.041237110         0.100000000         0.443298970
     0.057097540         0.100000000         0.459952420
     0.072957970         0.100000000         0.476605870
     0.088818400         0.100000000         0.493259320
     0.104678830         0.100000000         0.509912770
     0.120539250         0.100000000         0.526566220
     0.136399680         0.100000000         0.543219670
     0.152260110         0.100000000         0.559873120
     0.168120540         0.100000000         0.576526570
     0.183980970         0.100000000         0.593180020
     0.199841400         0.100000000         0.609833470
     0.215701820         0.100000000         0.626486920
     0.231562250         0.100000000         0.643140360
     0.247422680         0.100000000         0.659793810
     0.263283110         0.100000000         0.676447260
     0.279143540         0.100000000         0.693100710
     0.295003970         0.100000000         0.709754160
     0.310864390         0.100000000         0.726407610
     0.326724820         0.100000000         0.743061060
     0.342585250         0.100000000         0.759714510
     0.358445680         0.100000000         0.776367960
     0.374306110         0.100000000         0.793021410
     0.390166530         0.100000000         0.809674860
     0.406026960         0.100000000         0.826328310
     0.421887390         0.100000000         0.842981760
     0.437747820         0.100000000         0.859635210
     0.453608250         0.100000000         0.876288660
     0.469468680         0.100000000         0.892942110
     0.485329100         0.100000000         0.909595560
     0.501189530         0.100000000         0.926249010
     0.517049960         0.100000000         0.942902460
     0.532910390         0.100000000         0.959555910
     0.548770820         0.100000000         0.976209360
     0.564631250         0.100000000         0.992862810
     0.010309280         0.100000000         0.360824740
     0.026169710         0.100000000         0.377478190
     0.042030130         0.100000000         0.394131640
     0.057890560         0.100000000         0.410785090
     0.073750990         0.100000000         0.427438540
     0.089611420         0.100000000         0.444091990
     0.105471850         0.100000000         0.460745440
     0.121332280         0.100000000         0.477398890
     0.137192700         0.100000000         0.494052340
     0.153053130         0.100000000         0.510705790
     0.168913560         0.100000000         0.527359240
     0.184773990         0.100000000         0.544012690
     0.200634420         0.100000000         0.560666140
     0.216494850         0.100000000         0.577319590
     0.232355270         0.100000000         0.593973040
     0.248215700         0.100000000         0.610626490
     0.264076130         0.100000000         0.627279940
     0.279936560         0.100000000         0.643933390
     0.295796990         0.100000000         0.660586840
     0.311657410         0.100000000         0.677240290
     0.327517840         0.100000000         0.693893740
     0.343378270         0.100000000         0.710547180
     0.359238700         0.100000000         0.727200630
     0.375099130         0.100000000         0.743854080
     0.390959560         0.100000000         0.760507530
     0.406819980         0.100000000         0.777160980
     0.422680410         0.100000000         0.793814430
     0.438540840         0.100000000         0.810467880
     0.454401270         0.100000000         0.827121330
     0.470261700         0.100000000         0.843774780
     0.486122130         0.100000000         0.860428230
     0.501982550         0.100000000         0.877081680
     0.517842980         0.100000000         0.893735130
     0.533703410         0.100000000         0.910388580
     0.549563840         0.100000000         0.927042030
     0.565424270         0.100000000         0.943695480
     0.581284690         0.100000000         0.960348930
     0.597145120         0.100000000         0.977002380
     0.613005550         0.100000000         0.993655830
     0.011102300         0.100000000         0.311657410
     0.026962730         0.100000000         0.328310860
     0.042823160         0.100000000         0.344964310
     0.058683580         0.100000000         0.361617760
     0.074544010         0.100000000         0.378271210
     0.090404440         0.100000000         0.394924660
     0.106264870         0.100000000         0.411578110
     0.122125300         0.100000000         0.428231560
     0.137985730         0.100000000         0.444885010
     0.153846150         0.100000000         0.461538460
     0.169706580         0.100000000         0.478191910
     0.185567010         0.100000000         0.494845360
     0.201427440         0.100000000         0.511498810
     0.217287870         0.100000000         0.528152260
     0.233148300         0.100000000         0.544805710
     0.249008720         0.100000000         0.561459160
     0.264869150         0.100000000         0.578112610
     0.280729580         0.100000000         0.594766060
     0.296590010         0.100000000         0.611419510
     0.312450440         0.100000000         0.628072960
     0.328310860         0.100000000         0.644726410
     0.344171290         0.100000000         0.661379860
     0.360031720         0.100000000         0.678033310
     0.375892150         0.100000000         0.694686760
     0.391752580         0.100000000         0.711340210
     0.407613010         0.100000000         0.727993660
     0.423473430         0.100000000         0.744647110
     0.439333860         0.100000000         0.761300560
     0.455194290         0.100000000         0.777954000
     0.471054720         0.100000000         0.794607450
     0.486915150         0.100000000         0.811260900
     0.502775570         0.100000000         0.827914350
     0.518636000         0.100000000         0.844567800
     0.534496430         0.100000000         0.861221250
     0.550356860         0.100000000         0.877874700
     0.566217290         0.100000000         0.894528150
     0.582077720         0.100000000         0.911181600
     0.597938140         0.100000000         0.927835050
     0.613798570         0.100000000         0.944488500
     0.629659000         0.100000000         0.961141950
     0.645519430         0.100000000         0.977795400
     0.661379860         0.100000000         0.994448850
     0.011895320         0.100000000         0.262490090
     0.027755750         0.100000000         0.279143540
     0.043616180         0.100000000         0.295796990
     0.059476610         0.100000000         0.312450440
     0.075337030         0.100000000         0.329103890
     0.091197460         0.100000000         0.345757340
     0.107057890         0.100000000         0.362410790
     0.122918320         0.100000000         0.379064230
     0.138778750         0.100000000         0.395717680
     0.154639180         0.100000000         0.412371130
     0.170499600         0.100000000         0.429024580
     0.186360030         0.100000000         0.445678030
     0.202220460         0.100000000         0.462331480
     0.218080890         0.100000000         0.478984930
     0.233941320         0.100000000         0.495638380
     0.249801740         0.100000000         0.512291830
     0.265662170         0.100000000         0.528945280
     0.281522600         0.100000000         0.545598730
     0.297383030         0.100000000         0.562252180
     0.313243460         0.100000000         0.578905630
     0.329103890         0.100000000         0.595559080
     0.344964310         0.100000000         0.612212530
     0.360824740         0.100000000         0.628865980
     0.376685170         0.100000000         0.645519430
     0.392545600         0.100000000         0.662172880
     0.408406030         0.100000000         0.678826330
     0.424266460         0.100000000         0.695479780
     0.440126880         0.100000000         0.712133230
     0.455987310         0.100000000         0.728786680
     0.471847740         0.100000000         0.745440130
     0.487708170         0.100000000         0.762093580
     0.503568600         0.100000000         0.778747030
     0.519429020         0.100000000         0.795400480
     0.535289450         0.100000000         0.812053930
     0.551149880         0.100000000         0.828707380
     0.567010310         0.100000000         0.845360820
     0.582870740         0.100000000         0.862014270
     0.598731170         0.100000000         0.878667720
     0.614591590         0.100000000         0.895321170
     0.630452020         0.100000000         0.911974620
     0.646312450         0.100000000         0.928628070
     0.662172880         0.100000000         0.945281520
     0.678033310         0.100000000         0.961934970
     0.693893740         0.100000000         0.978588420
     0.709754160         0.100000000         0.995241870
     0.012688340         0.100000000         0.213322760
     0.028548770         0.100000000         0.229976210
     0.044409200         0.100000000         0.246629660
     0.060269630         0.100000000         0.263283110
     0.076130060         0.100000000         0.279936560
     0.091990480         0.100000000         0.296590010
     0.107850910         0.100000000         0.313243460
     0.123711340         0.100000000         0.329896910
     0.139571770         0.100000000         0.346550360
     0.155432200         0.100000000         0.363203810
     0.171292620         0.100000000         0.379857260
     0.187153050         0.100000000         0.396510710
     0.203013480         0.100000000         0.413164160
     0.218873910         0.100000000         0.429817610
     0.234734340         0.100000000         0.446471050
     0.250594770         0.100000000         0.463124500
     0.266455190         0.100000000         0.479777950
     0.282315620         0.100000000         0.496431400
     0.298176050         0.100000000         0.513084850
     0.314036480         0.100000000         0.529738300
     0.329896910         0.100000000         0.546391750
     0.345757340         0.100000000         0.563045200
     0.361617760         0.100000000         0.579698650
     0.377478190         0.100000000         0.596352100
     0.393338620         0.100000000         0.613005550
     0.409199050         0.100000000         0.629659000
     0.425059480         0.100000000         0.646312450
     0.440919900         0.100000000         0.662965900
     0.456780330         0.100000000         0.679619350
     0.472640760         0.100000000         0.696272800
     0.488501190         0.100000000         0.712926250
     0.504361620         0.100000000         0.729579700
     0.520222050         0.100000000         0.746233150
     0.536082470         0.100000000         0.762886600
     0.551942900         0.100000000         0.779540050
     0.567803330         0.100000000         0.796193500
     0.583663760         0.100000000         0.812846950
     0.599524190         0.100000000         0.829500400
     0.615384620         0.100000000         0.846153850
     0.631245040         0.100000000         0.862807300
     0.647105470         0.100000000         0.879460750
     0.662965900         0.100000000         0.896114200
     0.678826330         0.100000000         0.912767640
     0.694686760         0.100000000         0.929421090
     0.710547180         0.100000000         0.946074540
     0.726407610         0.100000000         0.962727990
     0.742268040         0.100000000         0.979381440
     0.758128470         0.100000000         0.996034890
     0.013481360         0.100000000         0.164155430
     0.029341790         0.100000000         0.180808880
     0.045202220         0.100000000         0.197462330
     0.061062650         0.100000000         0.214115780
     0.076923080         0.100000000         0.230769230
     0.092783510         0.100000000         0.247422680
     0.108643930         0.100000000         0.264076130
     0.124504360         0.100000000         0.280729580
     0.140364790         0.100000000         0.297383030
     0.156225220         0.100000000         0.314036480
     0.172085650         0.100000000         0.330689930
     0.187946070         0.100000000         0.347343380
     0.203806500         0.100000000         0.363996830
     0.219666930         0.100000000         0.380650280
     0.235527360         0.100000000         0.397303730
     0.251387790         0.100000000         0.413957180
     0.267248220         0.100000000         0.430610630
     0.283108640         0.100000000         0.447264080
     0.298969070         0.100000000         0.463917530
     0.314829500         0.100000000         0.480570980
     0.330689930         0.100000000         0.497224430
     0.346550360         0.100000000         0.513877870
     0.362410790         0.100000000         0.530531320
     0.378271210         0.100000000         0.547184770
     0.394131640         0.100000000         0.563838220
     0.409992070         0.100000000         0.580491670
     0.425852500         0.100000000         0.597145120
     0.441712930         0.100000000         0.613798570
     0.457573350         0.100000000         0.630452020
     0.473433780         0.100000000         0.647105470
     0.489294210         0.100000000         0.663758920
     0.505154640         0.100000000         0.680412370
     0.521015070         0.100000000         0.697065820
     0.536875500         0.100000000         0.713719270
     0.552735920         0.100000000         0.730372720
     0.568596350         0.100000000         0.747026170
     0.584456780         0.100000000         0.763679620
     0.600317210         0.100000000         0.780333070
     0.616177640         0.100000000         0.796986520
     0.632038070         0.100000000         0.813639970
     0.647898490         0.100000000         0.830293420
     0.663758920         0.100000000         0.846946870
     0.679619350         0.100000000         0.863600320
     0.695479780         0.100000000         0.880253770
     0.711340210         0.100000000         0.896907220
     0.727200630         0.100000000         0.913560670
     0.743061060         0.100000000         0.930214120
     0.758921490         0.100000000         0.946867570
     0.774781920         0.100000000         0.963521020
     0.790642350         0.100000000         0.980174460
     0.806502780         0.100000000         0.996827910
     0.014274390         0.100000000         0.114988100
     0.030134810         0.100000000         0.131641550
     0.045995240         0.100000000         0.148295000
     0.061855670         0.100000000         0.164948450
     0.077716100         0.100000000         0.181601900
     0.093576530         0.100000000         0.198255350
     0.109436950         0.100000000         0.214908800
     0.125297380         0.100000000         0.231562250
     0.141157810         0.100000000         0.248215700
     0.157018240         0.100000000         0.264869150
     0.172878670         0.100000000         0.281522600
     0.188739100         0.100000000         0.298176050
     0.204599520         0.100000000         0.314829500
     0.220459950         0.100000000         0.331482950
     0.236320380         0.100000000         0.348136400
     0.252180810         0.100000000         0.364789850
     0.268041240         0.100000000         0.381443300
     0.283901670         0.100000000         0.398096750
     0.299762090         0.100000000         0.414750200
     0.315622520         0.100000000         0.431403650
     0.331482950         0.100000000         0.448057100
     0.347343380         0.100000000         0.464710550
     0.363203810         0.100000000         0.481364000
     0.379064230         0.100000000         0.498017450
     0.394924660         0.100000000         0.514670900
     0.410785090         0.100000000         0.531324350
     0.426645520         0.100000000         0.547977800
     0.442505950         0.100000000         0.564631250
     0.458366380         0.100000000         0.581284690
     0.474226800         0.100000000         0.597938140
     0.490087230         0.100000000         0.614591590
     0.505947660         0.100000000         0.631245040
     0.521808090         0.100000000         0.647898490
     0.537668520         0.100000000         0.664551940
     0.553528950         0.100000000         0.681205390
     0.569389370         0.100000000         0.697858840
     0.585249800         0.100000000         0.714512290
     0.601110230         0.100000000         0.731165740
     0.616970660         0.100000000         0.747819190
     0.632831090         0.100000000         0.764472640
     0.648691510         0.100000000         0.781126090
     0.664551940         0.100000000         0.797779540
     0.680412370         0.100000000         0.814432990
     0.696272800         0.100000000         0.831086440
     0.712133230         0.100000000         0.847739890
     0.727993660         0.100000000         0.864393340
     0.743854080         0.100000000         0.881046790
     0.759714510         0.100000000         0.897700240
     0.775574940         0.100000000         0.914353690
     0.791435370         0.100000000         0.931007140
     0.807295800         0.100000000         0.947660590
     0.823156230         0.100000000         0.964314040
     0.839016650         0.100000000         0.980967490
     0.854877080         0.100000000         0.997620940