Generated by Twist2D
1.0
        9.8379997769         4.2599788634         0.0000000000
      -11.9207912107        27.5298880657         0.0000000000
        4.9189998885         2.1299894317         9.2844086858
    C
   76
Direct
     0.052631580         0.100000000         0.578947370
     0.157894740         0.100000000         0.736842110
     0.263157890         0.100000000         0.894736840
     0.000000000         0.100000000         0.000000000
     0.105263160         0.100000000         0.157894740
     0.210526320         0.100000000         0.315789470
     0.315789470         0.100000000         0.473684210
     0.421052630         0.100000000         0.631578950
     0.526315790         0.100000000         0.789473680
     0.631578950         0.100000000         0.947368420
     0.368421050         0.100000000         0.052631580
     0.473684210         0.100000000         0.210526320
     0.578947370         0.100000000         0.368421050
     0.684210530         0.100000000         0.526315790
     0.789473680         0.100000000         0.684210530
     0.894736840         0.100000000         0.842105260
     0.736842110         0.100000000         0.105263160
     0.842105260         0.100000000         0.263157890
     0.947368420         0.100000000         0.421052630
     0.298245620         0.100000000         0.614035080
     0.403508770         0.100000000         0.771929820
     0.508771930         0.100000000         0.929824550
     0.245614040         0.100000000         0.035087710
     0.350877190         0.100000000         0.192982450
     0.456140350         0.100000000         0.350877180
     0.561403510         0.100000000         0.508771920
     0.666666670         0.100000000         0.666666660
     0.771929830         0.100000000         0.824561400
     0.877192980         0.100000000         0.982456130
     0.614035090         0.100000000         0.087719290
     0.719298250         0.100000000         0.245614030
     0.824561400         0.100000000         0.403508760
     0.929824560         0.100000000         0.561403500
     0.035087720         0.100000000         0.719298240
     0.140350880         0.100000000         0.877192970
     0.982456140         0.100000000         0.140350870
     0.087719300         0.100000000         0.298245610
     0.192982460         0.100000000         0.456140340
     0.105263160         0.213613330         0.736842110
     0.263157890         0.213613330         0.842105260
     0.421052630         0.213613330         0.947368420
     0.052631580         0.213613330         0.368421050
     0.210526320         0.213613330         0.473684210
     0.368421050         0.213613330         0.578947370
     0.526315790         0.213613330         0.684210530
     0.684210530         0.213613330         0.789473680
     0.842105260         0.213613330         0.894736840
     0.000000000         0.213613330         0.000000000
     0.157894740         0.213613330         0.105263160
     0.315789470         0.213613330         0.210526320
     0.473684210         0.213613330         0.315789470
     0.631578950         0.213613330         0.421052630
     0.789473680         0.213613330         0.526315790
     0.947368420         0.213613330         0.631578950
     0.578947370         0.213613330         0.052631580
     0.736842110         0.213613330         0.157894740
     0.894736840         0.213613330         0.263157890
     0.385964910         0.213613330         0.701754380
     0.543859650         0.213613330         0.807017540
     0.701754390         0.213613330         0.912280690
     0.333333330         0.213613330         0.333333330
     0.491228070         0.213613330         0.438596480
     0.649122810         0.213613330         0.543859640
     0.807017540         0.213613330         0.649122800
     0.964912280         0.213613330         0.754385960
     0.122807020         0.213613330         0.859649120
     0.280701750         0.213613330         0.964912270
     0.438596490         0.213613330         0.070175430
     0.596491230         0.213613330         0.175438590
     0.754385960         0.213613330         0.280701750
     0.912280700         0.213613330         0.385964900
     0.070175440         0.213613330         0.491228060
     0.228070170         0.213613330         0.596491220
     0.859649120         0.213613330         0.017543850
     0.017543860         0.213613330         0.122807010
     0.175438600         0.213613330         0.228070170
