Generated by Twist2D
1.0
       31.9735002047        17.0399159491         0.0000000000
      -14.1095124269        26.4749251005         0.0000000000
       15.9867501023         8.5199579745        31.3767045460
    C
  868
Direct
     0.004608290         0.100000000         0.880184330
     0.041474650         0.100000000         0.921658990
     0.078341010         0.100000000         0.963133640
     0.009216590         0.100000000         0.760368660
     0.046082950         0.100000000         0.801843320
     0.082949310         0.100000000         0.843317970
     0.119815670         0.100000000         0.884792630
     0.156682030         0.100000000         0.926267280
     0.193548390         0.100000000         0.967741940
     0.013824880         0.100000000         0.640553000
     0.050691240         0.100000000         0.682027650
     0.087557600         0.100000000         0.723502300
     0.124423960         0.100000000         0.764976960
     0.161290320         0.100000000         0.806451610
     0.198156680         0.100000000         0.847926270
     0.235023040         0.100000000         0.889400920
     0.271889400         0.100000000         0.930875580
     0.308755760         0.100000000         0.972350230
     0.018433180         0.100000000         0.520737330
     0.055299540         0.100000000         0.562211980
     0.092165900         0.100000000         0.603686640
     0.129032260         0.100000000         0.645161290
     0.165898620         0.100000000         0.686635940
     0.202764980         0.100000000         0.728110600
     0.239631340         0.100000000         0.769585250
     0.276497700         0.100000000         0.811059910
     0.313364060         0.100000000         0.852534560
     0.350230410         0.100000000         0.894009220
     0.387096770         0.100000000         0.935483870
     0.423963130         0.100000000         0.976958530
     0.023041470         0.100000000         0.400921660
     0.059907830         0.100000000         0.442396310
     0.096774190         0.100000000         0.483870970
     0.133640550         0.100000000         0.525345620
     0.170506910         0.100000000         0.566820280
     0.207373270         0.100000000         0.608294930
     0.244239630         0.100000000         0.649769590
     0.281105990         0.100000000         0.691244240
     0.317972350         0.100000000         0.732718890
     0.354838710         0.100000000         0.774193550
     0.391705070         0.100000000         0.815668200
     0.428571430         0.100000000         0.857142860
     0.465437790         0.100000000         0.898617510
     0.502304150         0.100000000         0.940092170
     0.539170510         0.100000000         0.981566820
     0.027649770         0.100000000         0.281105990
     0.064516130         0.100000000         0.322580650
     0.101382490         0.100000000         0.364055300
     0.138248850         0.100000000         0.405529950
     0.175115210         0.100000000         0.447004610
     0.211981570         0.100000000         0.488479260
     0.248847930         0.100000000         0.529953920
     0.285714290         0.100000000         0.571428570
     0.322580650         0.100000000         0.612903230
     0.359447000         0.100000000         0.654377880
     0.396313360         0.100000000         0.695852530
     0.433179720         0.100000000         0.737327190
     0.470046080         0.100000000         0.778801840
     0.506912440         0.100000000         0.820276500
     0.543778800         0.100000000         0.861751150
     0.580645160         0.100000000         0.903225810
     0.617511520         0.100000000         0.944700460
     0.654377880         0.100000000         0.986175120
     0.032258060         0.100000000         0.161290320
     0.069124420         0.100000000         0.202764980
     0.105990780         0.100000000         0.244239630
     0.142857140         0.100000000         0.285714290
     0.179723500         0.100000000         0.327188940
     0.216589860         0.100000000         0.368663590
     0.253456220         0.100000000         0.410138250
     0.290322580         0.100000000         0.451612900
     0.327188940         0.100000000         0.493087560
     0.364055300         0.100000000         0.534562210
     0.400921660         0.100000000         0.576036870
     0.437788020         0.100000000         0.617511520
     0.474654380         0.100000000         0.658986180
     0.511520740         0.100000000         0.700460830
     0.548387100         0.100000000         0.741935480
     0.585253460         0.100000000         0.783410140
     0.622119820         0.100000000         0.824884790
     0.658986180         0.100000000         0.866359450
     0.695852530         0.100000000         0.907834100
     0.732718890         0.100000000         0.949308760
     0.769585250         0.100000000         0.990783410
     0.000000000         0.100000000         0.000000000
     0.036866360         0.100000000         0.041474650
     0.073732720         0.100000000         0.082949310
     0.110599080         0.100000000         0.124423960
     0.147465440         0.100000000         0.165898620
     0.184331800         0.100000000         0.207373270
     0.221198160         0.100000000         0.248847930
     0.258064520         0.100000000         0.290322580
     0.294930880         0.100000000         0.331797240
     0.331797240         0.100000000         0.373271890
     0.368663590         0.100000000         0.414746540
     0.405529950         0.100000000         0.456221200
     0.442396310         0.100000000         0.497695850
     0.479262670         0.100000000         0.539170510
     0.516129030         0.100000000         0.580645160
     0.552995390         0.100000000         0.622119820
     0.589861750         0.100000000         0.663594470
     0.626728110         0.100000000         0.705069120
     0.663594470         0.100000000         0.746543780
     0.700460830         0.100000000         0.788018430
     0.737327190         0.100000000         0.829493090
     0.774193550         0.100000000         0.870967740
     0.811059910         0.100000000         0.912442400
     0.847926270         0.100000000         0.953917050
     0.884792630         0.100000000         0.995391710
     0.115207370         0.100000000         0.004608290
     0.152073730         0.100000000         0.046082950
     0.188940090         0.100000000         0.087557600
     0.225806450         0.100000000         0.129032260
     0.262672810         0.100000000         0.170506910
     0.299539170         0.100000000         0.211981570
     0.336405530         0.100000000         0.253456220
     0.373271890         0.100000000         0.294930880
     0.410138250         0.100000000         0.336405530
     0.447004610         0.100000000         0.377880180
     0.483870970         0.100000000         0.419354840
     0.520737330         0.100000000         0.460829490
     0.557603690         0.100000000         0.502304150
     0.594470050         0.100000000         0.543778800
     0.631336410         0.100000000         0.585253460
     0.668202760         0.100000000         0.626728110
     0.705069120         0.100000000         0.668202760
     0.741935480         0.100000000         0.709677420
     0.778801840         0.100000000         0.751152070
     0.815668200         0.100000000         0.792626730
     0.852534560         0.100000000         0.834101380
     0.889400920         0.100000000         0.875576040
     0.926267280         0.100000000         0.917050690
     0.963133640         0.100000000         0.958525350
     0.230414750         0.100000000         0.009216590
     0.267281110         0.100000000         0.050691240
     0.304147470         0.100000000         0.092165900
     0.341013820         0.100000000         0.133640550
     0.377880180         0.100000000         0.175115210
     0.414746540         0.100000000         0.216589860
     0.451612900         0.100000000         0.258064520
     0.488479260         0.100000000         0.299539170
     0.525345620         0.100000000         0.341013820
     0.562211980         0.100000000         0.382488480
     0.599078340         0.100000000         0.423963130
     0.635944700         0.100000000         0.465437790
     0.672811060         0.100000000         0.506912440
     0.709677420         0.100000000         0.548387100
     0.746543780         0.100000000         0.589861750
     0.783410140         0.100000000         0.631336410
     0.820276500         0.100000000         0.672811060
     0.857142860         0.100000000         0.714285710
     0.894009220         0.100000000         0.755760370
     0.930875580         0.100000000         0.797235020
     0.967741940         0.100000000         0.838709680
     0.345622120         0.100000000         0.013824880
     0.382488480         0.100000000         0.055299540
     0.419354840         0.100000000         0.096774190
     0.456221200         0.100000000         0.138248850
     0.493087560         0.100000000         0.179723500
     0.529953920         0.100000000         0.221198160
     0.566820280         0.100000000         0.262672810
     0.603686640         0.100000000         0.304147470
     0.640553000         0.100000000         0.345622120
     0.677419350         0.100000000         0.387096770
     0.714285710         0.100000000         0.428571430
     0.751152070         0.100000000         0.470046080
     0.788018430         0.100000000         0.511520740
     0.824884790         0.100000000         0.552995390
     0.861751150         0.100000000         0.594470050
     0.898617510         0.100000000         0.635944700
     0.935483870         0.100000000         0.677419350
     0.972350230         0.100000000         0.718894010
     0.460829490         0.100000000         0.018433180
     0.497695850         0.100000000         0.059907830
     0.534562210         0.100000000         0.101382490
     0.571428570         0.100000000         0.142857140
     0.608294930         0.100000000         0.184331800
     0.645161290         0.100000000         0.225806450
     0.682027650         0.100000000         0.267281110
     0.718894010         0.100000000         0.308755760
     0.755760370         0.100000000         0.350230410
     0.792626730         0.100000000         0.391705070
     0.829493090         0.100000000         0.433179720
     0.866359450         0.100000000         0.474654380
     0.903225810         0.100000000         0.516129030
     0.940092170         0.100000000         0.557603690
     0.976958530         0.100000000         0.599078340
     0.576036870         0.100000000         0.023041470
     0.612903230         0.100000000         0.064516130
     0.649769590         0.100000000         0.105990780
     0.686635940         0.100000000         0.147465440
     0.723502300         0.100000000         0.188940090
     0.760368660         0.100000000         0.230414750
     0.797235020         0.100000000         0.271889400
     0.834101380         0.100000000         0.313364060
     0.870967740         0.100000000         0.354838710
     0.907834100         0.100000000         0.396313360
     0.944700460         0.100000000         0.437788020
     0.981566820         0.100000000         0.479262670
     0.691244240         0.100000000         0.027649770
     0.728110600         0.100000000         0.069124420
     0.764976960         0.100000000         0.110599080
     0.801843320         0.100000000         0.152073730
     0.838709680         0.100000000         0.193548390
     0.875576040         0.100000000         0.235023040
     0.912442400         0.100000000         0.276497700
     0.949308760         0.100000000         0.317972350
     0.986175120         0.100000000         0.359447000
     0.806451610         0.100000000         0.032258060
     0.843317970         0.100000000         0.073732720
     0.880184330         0.100000000         0.115207370
     0.917050690         0.100000000         0.156682030
     0.953917050         0.100000000         0.198156680
     0.990783410         0.100000000         0.239631340
     0.921658990         0.100000000         0.036866360
     0.958525350         0.100000000         0.078341010
     0.995391710         0.100000000         0.119815670
     0.081413210         0.100000000         0.883256530
     0.118279570         0.100000000         0.924731180
     0.155145930         0.100000000         0.966205830
     0.086021510         0.100000000         0.763440860
     0.122887860         0.100000000         0.804915510
     0.159754220         0.100000000         0.846390170
     0.196620580         0.100000000         0.887864820
     0.233486940         0.100000000         0.929339480
     0.270353300         0.100000000         0.970814130
     0.090629800         0.100000000         0.643625190
     0.127496160         0.100000000         0.685099840
     0.164362520         0.100000000         0.726574500
     0.201228880         0.100000000         0.768049150
     0.238095240         0.100000000         0.809523810
     0.274961600         0.100000000         0.850998460
     0.311827960         0.100000000         0.892473120
     0.348694320         0.100000000         0.933947770
     0.385560680         0.100000000         0.975422420
     0.095238100         0.100000000         0.523809520
     0.132104450         0.100000000         0.565284180
     0.168970810         0.100000000         0.606758830
     0.205837170         0.100000000         0.648233480
     0.242703530         0.100000000         0.689708140
     0.279569890         0.100000000         0.731182790
     0.316436250         0.100000000         0.772657450
     0.353302610         0.100000000         0.814132100
     0.390168970         0.100000000         0.855606760
     0.427035330         0.100000000         0.897081410
     0.463901690         0.100000000         0.938556070
     0.500768050         0.100000000         0.980030720
     0.099846390         0.100000000         0.403993850
     0.136712750         0.100000000         0.445468510
     0.173579110         0.100000000         0.486943160
     0.210445470         0.100000000         0.528417820
     0.247311830         0.100000000         0.569892470
     0.284178190         0.100000000         0.611367130
     0.321044550         0.100000000         0.652841780
     0.357910910         0.100000000         0.694316430
     0.394777270         0.100000000         0.735791090
     0.431643630         0.100000000         0.777265740
     0.468509980         0.100000000         0.818740400
     0.505376340         0.100000000         0.860215050
     0.542242700         0.100000000         0.901689710
     0.579109060         0.100000000         0.943164360
     0.615975420         0.100000000         0.984639010
     0.104454690         0.100000000         0.284178190
     0.141321040         0.100000000         0.325652840
     0.178187400         0.100000000         0.367127490
     0.215053760         0.100000000         0.408602150
     0.251920120         0.100000000         0.450076800
     0.288786480         0.100000000         0.491551460
     0.325652840         0.100000000         0.533026110
     0.362519200         0.100000000         0.574500770
     0.399385560         0.100000000         0.615975420
     0.436251920         0.100000000         0.657450070
     0.473118280         0.100000000         0.698924730
     0.509984640         0.100000000         0.740399380
     0.546851000         0.100000000         0.781874040
     0.583717360         0.100000000         0.823348690
     0.620583720         0.100000000         0.864823350
     0.657450080         0.100000000         0.906298000
     0.694316440         0.100000000         0.947772660
     0.731182800         0.100000000         0.989247310
     0.109062980         0.100000000         0.164362520
     0.145929340         0.100000000         0.205837170
     0.182795700         0.100000000         0.247311830
     0.219662060         0.100000000         0.288786480
     0.256528420         0.100000000         0.330261130
     0.293394780         0.100000000         0.371735790
     0.330261140         0.100000000         0.413210440
     0.367127500         0.100000000         0.454685100
     0.403993860         0.100000000         0.496159750
     0.440860220         0.100000000         0.537634410
     0.477726570         0.100000000         0.579109060
     0.514592930         0.100000000         0.620583710
     0.551459290         0.100000000         0.662058370
     0.588325650         0.100000000         0.703533020
     0.625192010         0.100000000         0.745007680
     0.662058370         0.100000000         0.786482330
     0.698924730         0.100000000         0.827956990
     0.735791090         0.100000000         0.869431640
     0.772657450         0.100000000         0.910906300
     0.809523810         0.100000000         0.952380950
     0.846390170         0.100000000         0.993855600
     0.076804920         0.100000000         0.003072190
     0.113671280         0.100000000         0.044546850
     0.150537630         0.100000000         0.086021500
     0.187403990         0.100000000         0.127496160
     0.224270350         0.100000000         0.168970810
     0.261136710         0.100000000         0.210445470
     0.298003070         0.100000000         0.251920120
     0.334869430         0.100000000         0.293394770
     0.371735790         0.100000000         0.334869430
     0.408602150         0.100000000         0.376344080
     0.445468510         0.100000000         0.417818740
     0.482334870         0.100000000         0.459293390
     0.519201230         0.100000000         0.500768050
     0.556067590         0.100000000         0.542242700
     0.592933950         0.100000000         0.583717360
     0.629800310         0.100000000         0.625192010
     0.666666670         0.100000000         0.666666660
     0.703533030         0.100000000         0.708141320
     0.740399390         0.100000000         0.749615970
     0.777265750         0.100000000         0.791090630
     0.814132100         0.100000000         0.832565280
     0.850998460         0.100000000         0.874039940
     0.887864820         0.100000000         0.915514590
     0.924731180         0.100000000         0.956989240
     0.961597540         0.100000000         0.998463900
     0.192012290         0.100000000         0.007680490
     0.228878650         0.100000000         0.049155140
     0.265745010         0.100000000         0.090629800
     0.302611370         0.100000000         0.132104450
     0.339477730         0.100000000         0.173579110
     0.376344090         0.100000000         0.215053760
     0.413210450         0.100000000         0.256528420
     0.450076810         0.100000000         0.298003070
     0.486943160         0.100000000         0.339477720
     0.523809520         0.100000000         0.380952380
     0.560675880         0.100000000         0.422427030
     0.597542240         0.100000000         0.463901690
     0.634408600         0.100000000         0.505376340
     0.671274960         0.100000000         0.546851000
     0.708141320         0.100000000         0.588325650
     0.745007680         0.100000000         0.629800300
     0.781874040         0.100000000         0.671274960
     0.818740400         0.100000000         0.712749610
     0.855606760         0.100000000         0.754224270
     0.892473120         0.100000000         0.795698920
     0.929339480         0.100000000         0.837173580
     0.966205840         0.100000000         0.878648230
     0.003072200         0.100000000         0.920122890
     0.039938560         0.100000000         0.961597540
     0.307219660         0.100000000         0.012288780
     0.344086020         0.100000000         0.053763440
     0.380952380         0.100000000         0.095238090
     0.417818740         0.100000000         0.136712750
     0.454685100         0.100000000         0.178187400
     0.491551460         0.100000000         0.219662060
     0.528417820         0.100000000         0.261136710
     0.565284180         0.100000000         0.302611360
     0.602150540         0.100000000         0.344086020
     0.639016900         0.100000000         0.385560670
     0.675883260         0.100000000         0.427035330
     0.712749620         0.100000000         0.468509980
     0.749615980         0.100000000         0.509984640
     0.786482330         0.100000000         0.551459290
     0.823348690         0.100000000         0.592933950
     0.860215050         0.100000000         0.634408600
     0.897081410         0.100000000         0.675883250
     0.933947770         0.100000000         0.717357910
     0.970814130         0.100000000         0.758832560
     0.007680490         0.100000000         0.800307220
     0.044546850         0.100000000         0.841781870
     0.422427040         0.100000000         0.016897080
     0.459293390         0.100000000         0.058371730
     0.496159750         0.100000000         0.099846390
     0.533026110         0.100000000         0.141321040
     0.569892470         0.100000000         0.182795700
     0.606758830         0.100000000         0.224270350
     0.643625190         0.100000000         0.265745010
     0.680491550         0.100000000         0.307219660
     0.717357910         0.100000000         0.348694310
     0.754224270         0.100000000         0.390168970
     0.791090630         0.100000000         0.431643620
     0.827956990         0.100000000         0.473118280
     0.864823350         0.100000000         0.514592930
     0.901689710         0.100000000         0.556067590
     0.938556070         0.100000000         0.597542240
     0.975422430         0.100000000         0.639016890
     0.012288790         0.100000000         0.680491550
     0.049155150         0.100000000         0.721966200
     0.537634410         0.100000000         0.021505370
     0.574500770         0.100000000         0.062980030
     0.611367130         0.100000000         0.104454680
     0.648233490         0.100000000         0.145929340
     0.685099850         0.100000000         0.187403990
     0.721966210         0.100000000         0.228878650
     0.758832570         0.100000000         0.270353300
     0.795698920         0.100000000         0.311827950
     0.832565280         0.100000000         0.353302610
     0.869431640         0.100000000         0.394777260
     0.906298000         0.100000000         0.436251920
     0.943164360         0.100000000         0.477726570
     0.980030720         0.100000000         0.519201230
     0.016897080         0.100000000         0.560675880
     0.053763440         0.100000000         0.602150540
     0.652841780         0.100000000         0.026113670
     0.689708140         0.100000000         0.067588320
     0.726574500         0.100000000         0.109062980
     0.763440860         0.100000000         0.150537630
     0.800307220         0.100000000         0.192012290
     0.837173580         0.100000000         0.233486940
     0.874039940         0.100000000         0.274961600
     0.910906300         0.100000000         0.316436250
     0.947772660         0.100000000         0.357910900
     0.984639020         0.100000000         0.399385560
     0.021505380         0.100000000         0.440860210
     0.058371740         0.100000000         0.482334870
     0.768049160         0.100000000         0.030721960
     0.804915510         0.100000000         0.072196620
     0.841781870         0.100000000         0.113671270
     0.878648230         0.100000000         0.155145930
     0.915514590         0.100000000         0.196620580
     0.952380950         0.100000000         0.238095240
     0.989247310         0.100000000         0.279569890
     0.026113670         0.100000000         0.321044540
     0.062980030         0.100000000         0.362519200
     0.883256530         0.100000000         0.035330260
     0.920122890         0.100000000         0.076804910
     0.956989250         0.100000000         0.118279570
     0.993855610         0.100000000         0.159754220
     0.030721970         0.100000000         0.201228880
     0.067588330         0.100000000         0.242703530
     0.998463900         0.100000000         0.039938550
     0.035330260         0.100000000         0.081413210
     0.072196620         0.100000000         0.122887860
     0.036866360         0.213613330         0.921658990
     0.078341010         0.213613330         0.958525350
     0.119815670         0.213613330         0.995391710
     0.032258060         0.213613330         0.806451610
     0.073732720         0.213613330         0.843317970
     0.115207370         0.213613330         0.880184330
     0.156682030         0.213613330         0.917050690
     0.198156680         0.213613330         0.953917050
     0.239631340         0.213613330         0.990783410
     0.027649770         0.213613330         0.691244240
     0.069124420         0.213613330         0.728110600
     0.110599080         0.213613330         0.764976960
     0.152073730         0.213613330         0.801843320
     0.193548390         0.213613330         0.838709680
     0.235023040         0.213613330         0.875576040
     0.276497700         0.213613330         0.912442400
     0.317972350         0.213613330         0.949308760
     0.359447000         0.213613330         0.986175120
     0.023041470         0.213613330         0.576036870
     0.064516130         0.213613330         0.612903230
     0.105990780         0.213613330         0.649769590
     0.147465440         0.213613330         0.686635940
     0.188940090         0.213613330         0.723502300
     0.230414750         0.213613330         0.760368660
     0.271889400         0.213613330         0.797235020
     0.313364060         0.213613330         0.834101380
     0.354838710         0.213613330         0.870967740
     0.396313360         0.213613330         0.907834100
     0.437788020         0.213613330         0.944700460
     0.479262670         0.213613330         0.981566820
     0.018433180         0.213613330         0.460829490
     0.059907830         0.213613330         0.497695850
     0.101382490         0.213613330         0.534562210
     0.142857140         0.213613330         0.571428570
     0.184331800         0.213613330         0.608294930
     0.225806450         0.213613330         0.645161290
     0.267281110         0.213613330         0.682027650
     0.308755760         0.213613330         0.718894010
     0.350230410         0.213613330         0.755760370
     0.391705070         0.213613330         0.792626730
     0.433179720         0.213613330         0.829493090
     0.474654380         0.213613330         0.866359450
     0.516129030         0.213613330         0.903225810
     0.557603690         0.213613330         0.940092170
     0.599078340         0.213613330         0.976958530
     0.013824880         0.213613330         0.345622120
     0.055299540         0.213613330         0.382488480
     0.096774190         0.213613330         0.419354840
     0.138248850         0.213613330         0.456221200
     0.179723500         0.213613330         0.493087560
     0.221198160         0.213613330         0.529953920
     0.262672810         0.213613330         0.566820280
     0.304147470         0.213613330         0.603686640
     0.345622120         0.213613330         0.640553000
     0.387096770         0.213613330         0.677419350
     0.428571430         0.213613330         0.714285710
     0.470046080         0.213613330         0.751152070
     0.511520740         0.213613330         0.788018430
     0.552995390         0.213613330         0.824884790
     0.594470050         0.213613330         0.861751150
     0.635944700         0.213613330         0.898617510
     0.677419350         0.213613330         0.935483870
     0.718894010         0.213613330         0.972350230
     0.009216590         0.213613330         0.230414750
     0.050691240         0.213613330         0.267281110
     0.092165900         0.213613330         0.304147470
     0.133640550         0.213613330         0.341013820
     0.175115210         0.213613330         0.377880180
     0.216589860         0.213613330         0.414746540
     0.258064520         0.213613330         0.451612900
     0.299539170         0.213613330         0.488479260
     0.341013820         0.213613330         0.525345620
     0.382488480         0.213613330         0.562211980
     0.423963130         0.213613330         0.599078340
     0.465437790         0.213613330         0.635944700
     0.506912440         0.213613330         0.672811060
     0.548387100         0.213613330         0.709677420
     0.589861750         0.213613330         0.746543780
     0.631336410         0.213613330         0.783410140