Generated by Twist2D
1.0
       43.0412512926        23.4298849936         0.0000000000
      -14.3433077996        26.3489946936         0.0000000000
       21.5206206829        11.7149397949        42.4397442814
    C
 1588
Direct
     0.002518890         0.100000000         0.911838790
     0.030226700         0.100000000         0.942065490
     0.057934510         0.100000000         0.972292190
     0.005037780         0.100000000         0.823677580
     0.032745590         0.100000000         0.853904280
     0.060453400         0.100000000         0.884130980
     0.088161210         0.100000000         0.914357680
     0.115869020         0.100000000         0.944584380
     0.143576830         0.100000000         0.974811080
     0.007556680         0.100000000         0.735516370
     0.035264480         0.100000000         0.765743070
     0.062972290         0.100000000         0.795969770
     0.090680100         0.100000000         0.826196470
     0.118387910         0.100000000         0.856423170
     0.146095720         0.100000000         0.886649870
     0.173803530         0.100000000         0.916876570
     0.201511340         0.100000000         0.947103270
     0.229219140         0.100000000         0.977329970
     0.010075570         0.100000000         0.647355160
     0.037783380         0.100000000         0.677581860
     0.065491180         0.100000000         0.707808560
     0.093198990         0.100000000         0.738035260
     0.120906800         0.100000000         0.768261960
     0.148614610         0.100000000         0.798488660
     0.176322420         0.100000000         0.828715370
     0.204030230         0.100000000         0.858942070
     0.231738040         0.100000000         0.889168770
     0.259445840         0.100000000         0.919395470
     0.287153650         0.100000000         0.949622170
     0.314861460         0.100000000         0.979848870
     0.012594460         0.100000000         0.559193950
     0.040302270         0.100000000         0.589420650
     0.068010080         0.100000000         0.619647360
     0.095717880         0.100000000         0.649874060
     0.123425690         0.100000000         0.680100760
     0.151133500         0.100000000         0.710327460
     0.178841310         0.100000000         0.740554160
     0.206549120         0.100000000         0.770780860
     0.234256930         0.100000000         0.801007560
     0.261964740         0.100000000         0.831234260
     0.289672540         0.100000000         0.861460960
     0.317380350         0.100000000         0.891687660
     0.345088160         0.100000000         0.921914360
     0.372795970         0.100000000         0.952141060
     0.400503780         0.100000000         0.982367760
     0.015113350         0.100000000         0.471032750
     0.042821160         0.100000000         0.501259450
     0.070528970         0.100000000         0.531486150
     0.098236780         0.100000000         0.561712850
     0.125944580         0.100000000         0.591939550
     0.153652390         0.100000000         0.622166250
     0.181360200         0.100000000         0.652392950
     0.209068010         0.100000000         0.682619650
     0.236775820         0.100000000         0.712846350
     0.264483630         0.100000000         0.743073050
     0.292191440         0.100000000         0.773299750
     0.319899240         0.100000000         0.803526450
     0.347607050         0.100000000         0.833753150
     0.375314860         0.100000000         0.863979850
     0.403022670         0.100000000         0.894206550
     0.430730480         0.100000000         0.924433250
     0.458438290         0.100000000         0.954659950
     0.486146100         0.100000000         0.984886650
     0.017632240         0.100000000         0.382871540
     0.045340050         0.100000000         0.413098240
     0.073047860         0.100000000         0.443324940
     0.100755670         0.100000000         0.473551640
     0.128463480         0.100000000         0.503778340
     0.156171280         0.100000000         0.534005040
     0.183879090         0.100000000         0.564231740
     0.211586900         0.100000000         0.594458440
     0.239294710         0.100000000         0.624685140
     0.267002520         0.100000000         0.654911840
     0.294710330         0.100000000         0.685138540
     0.322418140         0.100000000         0.715365240
     0.350125940         0.100000000         0.745591940
     0.377833750         0.100000000         0.775818640
     0.405541560         0.100000000         0.806045340
     0.433249370         0.100000000         0.836272040
     0.460957180         0.100000000         0.866498740
     0.488664990         0.100000000         0.896725440
     0.516372800         0.100000000         0.926952140
     0.544080600         0.100000000         0.957178840
     0.571788410         0.100000000         0.987405540
     0.020151130         0.100000000         0.294710330
     0.047858940         0.100000000         0.324937030
     0.075566750         0.100000000         0.355163730
     0.103274560         0.100000000         0.385390430
     0.130982370         0.100000000         0.415617130
     0.158690180         0.100000000         0.445843830
     0.186397980         0.100000000         0.476070530
     0.214105790         0.100000000         0.506297230
     0.241813600         0.100000000         0.536523930
     0.269521410         0.100000000         0.566750630
     0.297229220         0.100000000         0.596977330
     0.324937030         0.100000000         0.627204030
     0.352644840         0.100000000         0.657430730
     0.380352640         0.100000000         0.687657430
     0.408060450         0.100000000         0.717884130
     0.435768260         0.100000000         0.748110830
     0.463476070         0.100000000         0.778337530
     0.491183880         0.100000000         0.808564230
     0.518891690         0.100000000         0.838790930
     0.546599500         0.100000000         0.869017630
     0.574307300         0.100000000         0.899244330
     0.602015110         0.100000000         0.929471030
     0.629722920         0.100000000         0.959697730
     0.657430730         0.100000000         0.989924430
     0.022670030         0.100000000         0.206549120
     0.050377830         0.100000000         0.236775820
     0.078085640         0.100000000         0.267002520
     0.105793450         0.100000000         0.297229220
     0.133501260         0.100000000         0.327455920
     0.161209070         0.100000000         0.357682620
     0.188916880         0.100000000         0.387909320
     0.216624690         0.100000000         0.418136020
     0.244332490         0.100000000         0.448362720
     0.272040300         0.100000000         0.478589420
     0.299748110         0.100000000         0.508816120
     0.327455920         0.100000000         0.539042820
     0.355163730         0.100000000         0.569269520
     0.382871540         0.100000000         0.599496220
     0.410579350         0.100000000         0.629722920
     0.438287150         0.100000000         0.659949620
     0.465994960         0.100000000         0.690176320
     0.493702770         0.100000000         0.720403020
     0.521410580         0.100000000         0.750629720
     0.549118390         0.100000000         0.780856420
     0.576826200         0.100000000         0.811083120
     0.604534010         0.100000000         0.841309820
     0.632241810         0.100000000         0.871536520
     0.659949620         0.100000000         0.901763220
     0.687657430         0.100000000         0.931989920
     0.715365240         0.100000000         0.962216620
     0.743073050         0.100000000         0.992443320
     0.025188920         0.100000000         0.118387910
     0.052896730         0.100000000         0.148614610
     0.080604530         0.100000000         0.178841310
     0.108312340         0.100000000         0.209068010
     0.136020150         0.100000000         0.239294710
     0.163727960         0.100000000         0.269521410
     0.191435770         0.100000000         0.299748110
     0.219143580         0.100000000         0.329974810
     0.246851390         0.100000000         0.360201510
     0.274559190         0.100000000         0.390428210
     0.302267000         0.100000000         0.420654910
     0.329974810         0.100000000         0.450881610
     0.357682620         0.100000000         0.481108310
     0.385390430         0.100000000         0.511335010
     0.413098240         0.100000000         0.541561710
     0.440806050         0.100000000         0.571788410
     0.468513850         0.100000000         0.602015110
     0.496221660         0.100000000         0.632241810
     0.523929470         0.100000000         0.662468510
     0.551637280         0.100000000         0.692695210
     0.579345090         0.100000000         0.722921910
     0.607052900         0.100000000         0.753148610
     0.634760710         0.100000000         0.783375310
     0.662468510         0.100000000         0.813602020
     0.690176320         0.100000000         0.843828720
     0.717884130         0.100000000         0.874055420
     0.745591940         0.100000000         0.904282120
     0.773299750         0.100000000         0.934508820
     0.801007560         0.100000000         0.964735520
     0.828715370         0.100000000         0.994962220
     0.000000000         0.100000000         0.000000000
     0.027707810         0.100000000         0.030226700
     0.055415620         0.100000000         0.060453400
     0.083123430         0.100000000         0.090680100
     0.110831230         0.100000000         0.120906800
     0.138539040         0.100000000         0.151133500
     0.166246850         0.100000000         0.181360200
     0.193954660         0.100000000         0.211586900
     0.221662470         0.100000000         0.241813600
     0.249370280         0.100000000         0.272040300
     0.277078090         0.100000000         0.302267000
     0.304785890         0.100000000         0.332493700
     0.332493700         0.100000000         0.362720400
     0.360201510         0.100000000         0.392947100
     0.387909320         0.100000000         0.423173800
     0.415617130         0.100000000         0.453400500
     0.443324940         0.100000000         0.483627200
     0.471032750         0.100000000         0.513853900
     0.498740550         0.100000000         0.544080600
     0.526448360         0.100000000         0.574307300
     0.554156170         0.100000000         0.604534010
     0.581863980         0.100000000         0.634760710
     0.609571790         0.100000000         0.664987410
     0.637279600         0.100000000         0.695214110
     0.664987410         0.100000000         0.725440810
     0.692695210         0.100000000         0.755667510
     0.720403020         0.100000000         0.785894210
     0.748110830         0.100000000         0.816120910
     0.775818640         0.100000000         0.846347610
     0.803526450         0.100000000         0.876574310
     0.831234260         0.100000000         0.906801010
     0.858942070         0.100000000         0.937027710
     0.886649870         0.100000000         0.967254410
     0.914357680         0.100000000         0.997481110
     0.085642320         0.100000000         0.002518890
     0.113350130         0.100000000         0.032745590
     0.141057930         0.100000000         0.062972290
     0.168765740         0.100000000         0.093198990
     0.196473550         0.100000000         0.123425690
     0.224181360         0.100000000         0.153652390
     0.251889170         0.100000000         0.183879090
     0.279596980         0.100000000         0.214105790
     0.307304790         0.100000000         0.244332490
     0.335012590         0.100000000         0.274559190
     0.362720400         0.100000000         0.304785890
     0.390428210         0.100000000         0.335012590
     0.418136020         0.100000000         0.365239290
     0.445843830         0.100000000         0.395465990
     0.473551640         0.100000000         0.425692700
     0.501259450         0.100000000         0.455919400
     0.528967250         0.100000000         0.486146100
     0.556675060         0.100000000         0.516372800
     0.584382870         0.100000000         0.546599500
     0.612090680         0.100000000         0.576826200
     0.639798490         0.100000000         0.607052900
     0.667506300         0.100000000         0.637279600
     0.695214110         0.100000000         0.667506300
     0.722921910         0.100000000         0.697733000
     0.750629720         0.100000000         0.727959700
     0.778337530         0.100000000         0.758186400
     0.806045340         0.100000000         0.788413100
     0.833753150         0.100000000         0.818639800
     0.861460960         0.100000000         0.848866500
     0.889168770         0.100000000         0.879093200
     0.916876570         0.100000000         0.909319900
     0.944584380         0.100000000         0.939546600
     0.972292190         0.100000000         0.969773300
     0.171284630         0.100000000         0.005037780
     0.198992440         0.100000000         0.035264480
     0.226700250         0.100000000         0.065491180
     0.254408060         0.100000000         0.095717880
     0.282115870         0.100000000         0.125944580
     0.309823680         0.100000000         0.156171280
     0.337531490         0.100000000         0.186397980
     0.365239290         0.100000000         0.216624690
     0.392947100         0.100000000         0.246851390
     0.420654910         0.100000000         0.277078090
     0.448362720         0.100000000         0.307304790
     0.476070530         0.100000000         0.337531490
     0.503778340         0.100000000         0.367758190
     0.531486150         0.100000000         0.397984890
     0.559193950         0.100000000         0.428211590
     0.586901760         0.100000000         0.458438290
     0.614609570         0.100000000         0.488664990
     0.642317380         0.100000000         0.518891690
     0.670025190         0.100000000         0.549118390
     0.697733000         0.100000000         0.579345090
     0.725440810         0.100000000         0.609571790
     0.753148610         0.100000000         0.639798490
     0.780856420         0.100000000         0.670025190
     0.808564230         0.100000000         0.700251890
     0.836272040         0.100000000         0.730478590
     0.863979850         0.100000000         0.760705290
     0.891687660         0.100000000         0.790931990
     0.919395470         0.100000000         0.821158690
     0.947103270         0.100000000         0.851385390
     0.974811080         0.100000000         0.881612090
     0.256926950         0.100000000         0.007556680
     0.284634760         0.100000000         0.037783380
     0.312342570         0.100000000         0.068010080
     0.340050380         0.100000000         0.098236780
     0.367758190         0.100000000         0.128463480
     0.395465990         0.100000000         0.158690180
     0.423173800         0.100000000         0.188916880
     0.450881610         0.100000000         0.219143580
     0.478589420         0.100000000         0.249370280
     0.506297230         0.100000000         0.279596980
     0.534005040         0.100000000         0.309823680
     0.561712850         0.100000000         0.340050380
     0.589420650         0.100000000         0.370277080
     0.617128460         0.100000000         0.400503780
     0.644836270         0.100000000         0.430730480
     0.672544080         0.100000000         0.460957180
     0.700251890         0.100000000         0.491183880
     0.727959700         0.100000000         0.521410580
     0.755667510         0.100000000         0.551637280
     0.783375310         0.100000000         0.581863980
     0.811083120         0.100000000         0.612090680
     0.838790930         0.100000000         0.642317380
     0.866498740         0.100000000         0.672544080
     0.894206550         0.100000000         0.702770780
     0.921914360         0.100000000         0.732997480
     0.949622170         0.100000000         0.763224180
     0.977329970         0.100000000         0.793450880
     0.342569270         0.100000000         0.010075570
     0.370277080         0.100000000         0.040302270
     0.397984890         0.100000000         0.070528970
     0.425692700         0.100000000         0.100755670
     0.453400500         0.100000000         0.130982370
     0.481108310         0.100000000         0.161209070
     0.508816120         0.100000000         0.191435770
     0.536523930         0.100000000         0.221662470
     0.564231740         0.100000000         0.251889170
     0.591939550         0.100000000         0.282115870
     0.619647360         0.100000000         0.312342570
     0.647355160         0.100000000         0.342569270
     0.675062970         0.100000000         0.372795970
     0.702770780         0.100000000         0.403022670
     0.730478590         0.100000000         0.433249370
     0.758186400         0.100000000         0.463476070
     0.785894210         0.100000000         0.493702770
     0.813602020         0.100000000         0.523929470
     0.841309820         0.100000000         0.554156170
     0.869017630         0.100000000         0.584382870
     0.896725440         0.100000000         0.614609570
     0.924433250         0.100000000         0.644836270
     0.952141060         0.100000000         0.675062970
     0.979848870         0.100000000         0.705289670
     0.428211590         0.100000000         0.012594460
     0.455919400         0.100000000         0.042821160
     0.483627200         0.100000000         0.073047860
     0.511335010         0.100000000         0.103274560
     0.539042820         0.100000000         0.133501260
     0.566750630         0.100000000         0.163727960
     0.594458440         0.100000000         0.193954660
     0.622166250         0.100000000         0.224181360
     0.649874060         0.100000000         0.254408060
     0.677581860         0.100000000         0.284634760
     0.705289670         0.100000000         0.314861460
     0.732997480         0.100000000         0.345088160
     0.760705290         0.100000000         0.375314860
     0.788413100         0.100000000         0.405541560
     0.816120910         0.100000000         0.435768260
     0.843828720         0.100000000         0.465994960
     0.871536520         0.100000000         0.496221660
     0.899244330         0.100000000         0.526448360
     0.926952140         0.100000000         0.556675060
     0.954659950         0.100000000         0.586901760
     0.982367760         0.100000000         0.617128460
     0.513853900         0.100000000         0.015113350
     0.541561710         0.100000000         0.045340050
     0.569269520         0.100000000         0.075566750
     0.596977330         0.100000000         0.105793450
     0.624685140         0.100000000         0.136020150
     0.652392950         0.100000000         0.166246850
     0.680100760         0.100000000         0.196473550
     0.707808560         0.100000000         0.226700250
     0.735516370         0.100000000         0.256926950
     0.763224180         0.100000000         0.287153650
     0.790931990         0.100000000         0.317380350
     0.818639800         0.100000000         0.347607050
     0.846347610         0.100000000         0.377833750
     0.874055420         0.100000000         0.408060450
     0.901763220         0.100000000         0.438287150
     0.929471030         0.100000000         0.468513850
     0.957178840         0.100000000         0.498740550
     0.984886650         0.100000000         0.528967250
     0.599496220         0.100000000         0.017632240
     0.627204030         0.100000000         0.047858940
     0.654911840         0.100000000         0.078085640
     0.682619650         0.100000000         0.108312340
     0.710327460         0.100000000         0.138539040
     0.738035260         0.100000000         0.168765740
     0.765743070         0.100000000         0.198992440
     0.793450880         0.100000000         0.229219140
     0.821158690         0.100000000         0.259445840
     0.848866500         0.100000000         0.289672540
     0.876574310         0.100000000         0.319899240
     0.904282120         0.100000000         0.350125940
     0.931989920         0.100000000         0.380352640
     0.959697730         0.100000000         0.410579350
     0.987405540         0.100000000         0.440806050
     0.685138540         0.100000000         0.020151130
     0.712846350         0.100000000         0.050377830
     0.740554160         0.100000000         0.080604530
     0.768261960         0.100000000         0.110831230
     0.795969770         0.100000000         0.141057930
     0.823677580         0.100000000         0.171284630
     0.851385390         0.100000000         0.201511340
     0.879093200         0.100000000         0.231738040
     0.906801010         0.100000000         0.261964740
     0.934508820         0.100000000         0.292191440
     0.962216620         0.100000000         0.322418140
     0.989924430         0.100000000         0.352644840
     0.770780860         0.100000000         0.022670030
     0.798488660         0.100000000         0.052896730
     0.826196470         0.100000000         0.083123430
     0.853904280         0.100000000         0.113350130
     0.881612090         0.100000000         0.143576830
     0.909319900         0.100000000         0.173803530
     0.937027710         0.100000000         0.204030230
     0.964735520         0.100000000         0.234256930
     0.992443320         0.100000000         0.264483630
     0.856423170         0.100000000         0.025188920
     0.884130980         0.100000000         0.055415620
     0.911838790         0.100000000         0.085642320
     0.939546600         0.100000000         0.115869020
     0.967254410         0.100000000         0.146095720
     0.994962220         0.100000000         0.176322420
     0.942065490         0.100000000         0.027707810
     0.969773300         0.100000000         0.057934510
     0.997481110         0.100000000         0.088161210
     0.059613770         0.100000000         0.913518050
     0.087321580         0.100000000         0.943744750
     0.115029390         0.100000000         0.973971450
     0.062132660         0.100000000         0.825356840
     0.089840470         0.100000000         0.855583540
     0.117548280         0.100000000         0.885810240
     0.145256090         0.100000000         0.916036940
     0.172963900         0.100000000         0.946263640
     0.200671700         0.100000000         0.976490340
     0.064651550         0.100000000         0.737195630
     0.092359360         0.100000000         0.767422330
     0.120067170         0.100000000         0.797649030
     0.147774980         0.100000000         0.827875730
     0.175482790         0.100000000         0.858102430
     0.203190600         0.100000000         0.888329130
     0.230898400         0.100000000         0.918555830
     0.258606210         0.100000000         0.948782530
     0.286314020         0.100000000         0.979009230
     0.067170450         0.100000000         0.649034420
     0.094878250         0.100000000         0.679261120
     0.122586060         0.100000000         0.709487820
     0.150293870         0.100000000         0.739714520
     0.178001680         0.100000000         0.769941220
     0.205709490         0.100000000         0.800167920
     0.233417300         0.100000000         0.830394620
     0.261125110         0.100000000         0.860621320
     0.288832910         0.100000000         0.890848030
     0.316540720         0.100000000         0.921074730
     0.344248530         0.100000000         0.951301430
     0.371956340         0.100000000         0.981528130
     0.069689340         0.100000000         0.560873210
     0.097397150         0.100000000         0.591099910
     0.125104950         0.100000000         0.621326610
     0.152812760         0.100000000         0.651553310
     0.180520570         0.100000000         0.681780020
     0.208228380         0.100000000         0.712006720
     0.235936190         0.100000000         0.742233420
     0.263644000         0.100000000         0.772460120
     0.291351810         0.100000000         0.802686820
     0.319059610         0.100000000         0.832913520
     0.346767420         0.100000000         0.863140220
     0.374475230         0.100000000         0.893366920
     0.402183040         0.100000000         0.923593620
     0.429890850         0.100000000         0.953820320
     0.457598660         0.100000000         0.984047020
     0.072208230         0.100000000         0.472712000
     0.099916040         0.100000000         0.502938710
     0.127623850         0.100000000         0.533165410
     0.155331650         0.100000000         0.563392110
     0.183039460         0.100000000         0.593618810
     0.210747270         0.100000000         0.623845510
     0.238455080         0.100000000         0.654072210
     0.266162890         0.100000000         0.684298910
     0.293870700         0.100000000         0.714525610
     0.321578510         0.100000000         0.744752310
     0.349286310         0.100000000         0.774979010
     0.376994120         0.100000000         0.805205710
     0.404701930         0.100000000         0.835432410
     0.432409740         0.100000000         0.865659110
     0.460117550         0.100000000         0.895885810
     0.487825360         0.100000000         0.926112510
     0.515533170         0.100000000         0.956339210
     0.543240970         0.100000000         0.986565910
     0.074727120         0.100000000         0.384550800
     0.102434930         0.100000000         0.414777500
     0.130142740         0.100000000         0.445004200
     0.157850550         0.100000000         0.475230900
     0.185558350         0.100000000         0.505457600
     0.213266160         0.100000000         0.535684300
     0.240973970         0.100000000         0.565911000
     0.268681780         0.100000000         0.596137700
     0.296389590         0.100000000         0.626364400
     0.324097400         0.100000000         0.656591100
     0.351805210         0.100000000         0.686817800
     0.379513010         0.100000000         0.717044500
     0.407220820         0.100000000         0.747271200
     0.434928630         0.100000000         0.777497900
     0.462636440         0.100000000         0.807724600
     0.490344250         0.100000000         0.837951300
     0.518052060         0.100000000         0.868178000
     0.545759870         0.100000000         0.898404700
     0.573467670         0.100000000         0.928631400
     0.601175480         0.100000000         0.958858100
     0.628883290         0.100000000         0.989084800
     0.077246010         0.100000000         0.296389590
     0.104953820         0.100000000         0.326616290
     0.132661630         0.100000000         0.356842990
     0.160369440         0.100000000         0.387069690
     0.188077250         0.100000000         0.417296390
     0.215785050         0.100000000         0.447523090
     0.243492860         0.100000000         0.477749790
     0.271200670         0.100000000         0.507976490
     0.298908480         0.100000000         0.538203190
     0.326616290         0.100000000         0.568429890
     0.354324100         0.100000000         0.598656590
     0.382031910         0.100000000         0.628883290
     0.409739710         0.100000000         0.659109990
     0.437447520         0.100000000         0.689336690
     0.465155330         0.100000000         0.719563390
     0.492863140         0.100000000         0.749790090
     0.520570950         0.100000000         0.780016790
     0.548278760         0.100000000         0.810243490
     0.575986570         0.100000000         0.840470190
     0.603694370         0.100000000         0.870696890
     0.631402180         0.100000000         0.900923590
     0.659109990         0.100000000         0.931150290
     0.686817800         0.100000000         0.961376990
     0.714525610         0.100000000         0.991603690
     0.079764900         0.100000000         0.208228380
     0.107472710         0.100000000         0.238455080
     0.135180520         0.100000000         0.268681780
     0.162888330         0.100000000         0.298908480
     0.190596140         0.100000000         0.329135180
     0.218303950         0.100000000         0.359361880
     0.246011750         0.100000000         0.389588580
     0.273719560         0.100000000         0.419815280