Generated by Twist2D
1.0
        6.1487501551         2.1299895337         0.0000000000
       -9.8198050581        28.3473354766         0.0000000000
        3.0743750775         1.0649947669         5.6354226028
    C
   28
Direct
     0.000000000         0.100000000         0.000000000
     0.142857140         0.100000000         0.285714290
     0.285714290         0.100000000         0.571428570
     0.428571430         0.100000000         0.857142860
     0.571428570         0.100000000         0.142857140
     0.714285710         0.100000000         0.428571430
     0.857142860         0.100000000         0.714285710
     0.380952380         0.100000000         0.095238080
     0.523809530         0.100000000         0.380952370
     0.666666670         0.100000000         0.666666650
     0.809523810         0.100000000         0.952380940
     0.952380960         0.100000000         0.238095220
     0.095238100         0.100000000         0.523809510
     0.238095240         0.100000000         0.809523800
     0.142857140         0.213613330         0.571428570
     0.428571430         0.213613330         0.714285710
     0.714285710         0.213613330         0.857142860
     0.000000000         0.213613330         0.000000000
     0.285714290         0.213613330         0.142857140
     0.571428570         0.213613330         0.285714290
     0.857142860         0.213613330         0.428571430
     0.619047620         0.213613330         0.476190460
     0.904761900         0.213613330         0.619047610
     0.190476190         0.213613330         0.761904750
     0.476190470         0.213613330         0.904761890
     0.761904760         0.213613330         0.047619040
     0.047619050         0.213613330         0.190476180
     0.333333330         0.213613330         0.333333320
