Generated by Twist2D
1.0
       79.9337483791        44.7297781830         0.0000000000
      -14.6498423301        26.1798036605         0.0000000000
       39.9668741896        22.3648890915        79.3260227774
    C
 5548
Direct
     0.000720980         0.100000000         0.953136270
     0.015861570         0.100000000         0.968997840
     0.031002160         0.100000000         0.984859410
     0.001441960         0.100000000         0.906272530
     0.016582550         0.100000000         0.922134100
     0.031723140         0.100000000         0.937995670
     0.046863730         0.100000000         0.953857250
     0.062004330         0.100000000         0.969718820
     0.077144920         0.100000000         0.985580390
     0.002162940         0.100000000         0.859408800
     0.017303530         0.100000000         0.875270370
     0.032444120         0.100000000         0.891131940
     0.047584720         0.100000000         0.906993510
     0.062725310         0.100000000         0.922855080
     0.077865900         0.100000000         0.938716650
     0.093006490         0.100000000         0.954578230
     0.108147080         0.100000000         0.970439800
     0.123287670         0.100000000         0.986301370
     0.002883920         0.100000000         0.812545060
     0.018024510         0.100000000         0.828406630
     0.033165100         0.100000000         0.844268200
     0.048305700         0.100000000         0.860129780
     0.063446290         0.100000000         0.875991350
     0.078586880         0.100000000         0.891852920
     0.093727470         0.100000000         0.907714490
     0.108868060         0.100000000         0.923576060
     0.124008650         0.100000000         0.939437640
     0.139149240         0.100000000         0.955299210
     0.154289830         0.100000000         0.971160780
     0.169430430         0.100000000         0.987022350
     0.003604900         0.100000000         0.765681330
     0.018745490         0.100000000         0.781542900
     0.033886090         0.100000000         0.797404470
     0.049026680         0.100000000         0.813266040
     0.064167270         0.100000000         0.829127610
     0.079307860         0.100000000         0.844989190
     0.094448450         0.100000000         0.860850760
     0.109589040         0.100000000         0.876712330
     0.124729630         0.100000000         0.892573900
     0.139870220         0.100000000         0.908435470
     0.155010810         0.100000000         0.924297040
     0.170151410         0.100000000         0.940158620
     0.185292000         0.100000000         0.956020190
     0.200432590         0.100000000         0.971881760
     0.215573180         0.100000000         0.987743330
     0.004325880         0.100000000         0.718817590
     0.019466470         0.100000000         0.734679160
     0.034607070         0.100000000         0.750540740
     0.049747660         0.100000000         0.766402310
     0.064888250         0.100000000         0.782263880
     0.080028840         0.100000000         0.798125450
     0.095169430         0.100000000         0.813987020
     0.110310020         0.100000000         0.829848590
     0.125450610         0.100000000         0.845710170
     0.140591200         0.100000000         0.861571740
     0.155731800         0.100000000         0.877433310
     0.170872390         0.100000000         0.893294880
     0.186012980         0.100000000         0.909156450
     0.201153570         0.100000000         0.925018020
     0.216294160         0.100000000         0.940879600
     0.231434750         0.100000000         0.956741170
     0.246575340         0.100000000         0.972602740
     0.261715930         0.100000000         0.988464310
     0.005046860         0.100000000         0.671953860
     0.020187450         0.100000000         0.687815430
     0.035328050         0.100000000         0.703677000
     0.050468640         0.100000000         0.719538570
     0.065609230         0.100000000         0.735400140
     0.080749820         0.100000000         0.751261720
     0.095890410         0.100000000         0.767123290
     0.111031000         0.100000000         0.782984860
     0.126171590         0.100000000         0.798846430
     0.141312180         0.100000000         0.814708000
     0.156452780         0.100000000         0.830569570
     0.171593370         0.100000000         0.846431150
     0.186733960         0.100000000         0.862292720
     0.201874550         0.100000000         0.878154290
     0.217015140         0.100000000         0.894015860
     0.232155730         0.100000000         0.909877430
     0.247296320         0.100000000         0.925739010
     0.262436910         0.100000000         0.941600580
     0.277577510         0.100000000         0.957462150
     0.292718100         0.100000000         0.973323720
     0.307858690         0.100000000         0.989185290
     0.005767840         0.100000000         0.625090120
     0.020908440         0.100000000         0.640951690
     0.036049030         0.100000000         0.656813270
     0.051189620         0.100000000         0.672674840
     0.066330210         0.100000000         0.688536410
     0.081470800         0.100000000         0.704397980
     0.096611390         0.100000000         0.720259550
     0.111751980         0.100000000         0.736121120
     0.126892570         0.100000000         0.751982700
     0.142033170         0.100000000         0.767844270
     0.157173760         0.100000000         0.783705840
     0.172314350         0.100000000         0.799567410
     0.187454940         0.100000000         0.815428980
     0.202595530         0.100000000         0.831290560
     0.217736120         0.100000000         0.847152130
     0.232876710         0.100000000         0.863013700
     0.248017300         0.100000000         0.878875270
     0.263157890         0.100000000         0.894736840
     0.278298490         0.100000000         0.910598410
     0.293439080         0.100000000         0.926459990
     0.308579670         0.100000000         0.942321560
     0.323720260         0.100000000         0.958183130
     0.338860850         0.100000000         0.974044700
     0.354001440         0.100000000         0.989906270
     0.006488820         0.100000000         0.578226390
     0.021629420         0.100000000         0.594087960
     0.036770010         0.100000000         0.609949530
     0.051910600         0.100000000         0.625811100
     0.067051190         0.100000000         0.641672670
     0.082191780         0.100000000         0.657534250
     0.097332370         0.100000000         0.673395820
     0.112472960         0.100000000         0.689257390
     0.127613550         0.100000000         0.705118960
     0.142754150         0.100000000         0.720980530
     0.157894740         0.100000000         0.736842110
     0.173035330         0.100000000         0.752703680
     0.188175920         0.100000000         0.768565250
     0.203316510         0.100000000         0.784426820
     0.218457100         0.100000000         0.800288390
     0.233597690         0.100000000         0.816149960
     0.248738280         0.100000000         0.832011540
     0.263878880         0.100000000         0.847873110
     0.279019470         0.100000000         0.863734680
     0.294160060         0.100000000         0.879596250
     0.309300650         0.100000000         0.895457820
     0.324441240         0.100000000         0.911319390
     0.339581830         0.100000000         0.927180970
     0.354722420         0.100000000         0.943042540
     0.369863010         0.100000000         0.958904110
     0.385003600         0.100000000         0.974765680
     0.400144200         0.100000000         0.990627250
     0.007209810         0.100000000         0.531362650
     0.022350400         0.100000000         0.547224220
     0.037490990         0.100000000         0.563085800
     0.052631580         0.100000000         0.578947370
     0.067772170         0.100000000         0.594808940
     0.082912760         0.100000000         0.610670510
     0.098053350         0.100000000         0.626532080
     0.113193940         0.100000000         0.642393660
     0.128334530         0.100000000         0.658255230
     0.143475130         0.100000000         0.674116800
     0.158615720         0.100000000         0.689978370
     0.173756310         0.100000000         0.705839940
     0.188896900         0.100000000         0.721701510
     0.204037490         0.100000000         0.737563090
     0.219178080         0.100000000         0.753424660
     0.234318670         0.100000000         0.769286230
     0.249459260         0.100000000         0.785147800
     0.264599860         0.100000000         0.801009370
     0.279740450         0.100000000         0.816870940
     0.294881040         0.100000000         0.832732520
     0.310021630         0.100000000         0.848594090
     0.325162220         0.100000000         0.864455660
     0.340302810         0.100000000         0.880317230
     0.355443400         0.100000000         0.896178800
     0.370583990         0.100000000         0.912040370
     0.385724590         0.100000000         0.927901950
     0.400865180         0.100000000         0.943763520
     0.416005770         0.100000000         0.959625090
     0.431146360         0.100000000         0.975486660
     0.446286950         0.100000000         0.991348230
     0.007930790         0.100000000         0.484498920
     0.023071380         0.100000000         0.500360490
     0.038211970         0.100000000         0.516222060
     0.053352560         0.100000000         0.532083630
     0.068493150         0.100000000         0.547945210
     0.083633740         0.100000000         0.563806780
     0.098774330         0.100000000         0.579668350
     0.113914920         0.100000000         0.595529920
     0.129055520         0.100000000         0.611391490
     0.144196110         0.100000000         0.627253060
     0.159336700         0.100000000         0.643114640
     0.174477290         0.100000000         0.658976210
     0.189617880         0.100000000         0.674837780
     0.204758470         0.100000000         0.690699350
     0.219899060         0.100000000         0.706560920
     0.235039650         0.100000000         0.722422490
     0.250180250         0.100000000         0.738284070
     0.265320840         0.100000000         0.754145640
     0.280461430         0.100000000         0.770007210
     0.295602020         0.100000000         0.785868780
     0.310742610         0.100000000         0.801730350
     0.325883200         0.100000000         0.817591930
     0.341023790         0.100000000         0.833453500
     0.356164380         0.100000000         0.849315070
     0.371304970         0.100000000         0.865176640
     0.386445570         0.100000000         0.881038210
     0.401586160         0.100000000         0.896899780
     0.416726750         0.100000000         0.912761360
     0.431867340         0.100000000         0.928622930
     0.447007930         0.100000000         0.944484500
     0.462148520         0.100000000         0.960346070
     0.477289110         0.100000000         0.976207640
     0.492429700         0.100000000         0.992069210
     0.008651770         0.100000000         0.437635180
     0.023792360         0.100000000         0.453496760
     0.038932950         0.100000000         0.469358330
     0.054073540         0.100000000         0.485219900
     0.069214130         0.100000000         0.501081470
     0.084354720         0.100000000         0.516943040
     0.099495310         0.100000000         0.532804610
     0.114635900         0.100000000         0.548666190
     0.129776500         0.100000000         0.564527760
     0.144917090         0.100000000         0.580389330
     0.160057680         0.100000000         0.596250900
     0.175198270         0.100000000         0.612112470
     0.190338860         0.100000000         0.627974040
     0.205479450         0.100000000         0.643835620
     0.220620040         0.100000000         0.659697190
     0.235760630         0.100000000         0.675558760
     0.250901230         0.100000000         0.691420330
     0.266041820         0.100000000         0.707281900
     0.281182410         0.100000000         0.723143480
     0.296323000         0.100000000         0.739005050
     0.311463590         0.100000000         0.754866620
     0.326604180         0.100000000         0.770728190
     0.341744770         0.100000000         0.786589760
     0.356885360         0.100000000         0.802451330
     0.372025960         0.100000000         0.818312910
     0.387166550         0.100000000         0.834174480
     0.402307140         0.100000000         0.850036050
     0.417447730         0.100000000         0.865897620
     0.432588320         0.100000000         0.881759190
     0.447728910         0.100000000         0.897620760
     0.462869500         0.100000000         0.913482340
     0.478010090         0.100000000         0.929343910
     0.493150680         0.100000000         0.945205480
     0.508291280         0.100000000         0.961067050
     0.523431870         0.100000000         0.976928620
     0.538572460         0.100000000         0.992790190
     0.009372750         0.100000000         0.390771450
     0.024513340         0.100000000         0.406633020
     0.039653930         0.100000000         0.422494590
     0.054794520         0.100000000         0.438356160
     0.069935110         0.100000000         0.454217740
     0.085075700         0.100000000         0.470079310
     0.100216290         0.100000000         0.485940880
     0.115356890         0.100000000         0.501802450
     0.130497480         0.100000000         0.517664020
     0.145638070         0.100000000         0.533525590
     0.160778660         0.100000000         0.549387170
     0.175919250         0.100000000         0.565248740
     0.191059840         0.100000000         0.581110310
     0.206200430         0.100000000         0.596971880
     0.221341020         0.100000000         0.612833450
     0.236481610         0.100000000         0.628695030
     0.251622210         0.100000000         0.644556600
     0.266762800         0.100000000         0.660418170
     0.281903390         0.100000000         0.676279740
     0.297043980         0.100000000         0.692141310
     0.312184570         0.100000000         0.708002880
     0.327325160         0.100000000         0.723864460
     0.342465750         0.100000000         0.739726030
     0.357606340         0.100000000         0.755587600
     0.372746940         0.100000000         0.771449170
     0.387887530         0.100000000         0.787310740
     0.403028120         0.100000000         0.803172310
     0.418168710         0.100000000         0.819033890
     0.433309300         0.100000000         0.834895460
     0.448449890         0.100000000         0.850757030
     0.463590480         0.100000000         0.866618600
     0.478731070         0.100000000         0.882480170
     0.493871670         0.100000000         0.898341740
     0.509012260         0.100000000         0.914203320
     0.524152850         0.100000000         0.930064890
     0.539293440         0.100000000         0.945926460
     0.554434030         0.100000000         0.961788030
     0.569574620         0.100000000         0.977649600
     0.584715210         0.100000000         0.993511180
     0.010093730         0.100000000         0.343907710
     0.025234320         0.100000000         0.359769290
     0.040374910         0.100000000         0.375630860
     0.055515500         0.100000000         0.391492430
     0.070656090         0.100000000         0.407354000
     0.085796680         0.100000000         0.423215570
     0.100937270         0.100000000         0.439077140
     0.116077870         0.100000000         0.454938720
     0.131218460         0.100000000         0.470800290
     0.146359050         0.100000000         0.486661860
     0.161499640         0.100000000         0.502523430
     0.176640230         0.100000000         0.518385000
     0.191780820         0.100000000         0.534246580
     0.206921410         0.100000000         0.550108150
     0.222062000         0.100000000         0.565969720
     0.237202600         0.100000000         0.581831290
     0.252343190         0.100000000         0.597692860
     0.267483780         0.100000000         0.613554430
     0.282624370         0.100000000         0.629416010
     0.297764960         0.100000000         0.645277580
     0.312905550         0.100000000         0.661139150
     0.328046140         0.100000000         0.677000720
     0.343186730         0.100000000         0.692862290
     0.358327330         0.100000000         0.708723860
     0.373467920         0.100000000         0.724585440
     0.388608510         0.100000000         0.740447010
     0.403749100         0.100000000         0.756308580
     0.418889690         0.100000000         0.772170150
     0.434030280         0.100000000         0.788031720
     0.449170870         0.100000000         0.803893290
     0.464311460         0.100000000         0.819754870
     0.479452050         0.100000000         0.835616440
     0.494592650         0.100000000         0.851478010
     0.509733240         0.100000000         0.867339580
     0.524873830         0.100000000         0.883201150
     0.540014420         0.100000000         0.899062730
     0.555155010         0.100000000         0.914924300
     0.570295600         0.100000000         0.930785870
     0.585436190         0.100000000         0.946647440
     0.600576780         0.100000000         0.962509010
     0.615717380         0.100000000         0.978370580
     0.630857970         0.100000000         0.994232160
     0.010814710         0.100000000         0.297043980
     0.025955300         0.100000000         0.312905550
     0.041095890         0.100000000         0.328767120
     0.056236480         0.100000000         0.344628700
     0.071377070         0.100000000         0.360490270
     0.086517660         0.100000000         0.376351840
     0.101658260         0.100000000         0.392213410
     0.116798850         0.100000000         0.408074980
     0.131939440         0.100000000         0.423936550
     0.147080030         0.100000000         0.439798130
     0.162220620         0.100000000         0.455659700
     0.177361210         0.100000000         0.471521270
     0.192501800         0.100000000         0.487382840
     0.207642390         0.100000000         0.503244410
     0.222782980         0.100000000         0.519105980
     0.237923580         0.100000000         0.534967560
     0.253064170         0.100000000         0.550829130
     0.268204760         0.100000000         0.566690700
     0.283345350         0.100000000         0.582552270
     0.298485940         0.100000000         0.598413840
     0.313626530         0.100000000         0.614275410
     0.328767120         0.100000000         0.630136990
     0.343907710         0.100000000         0.645998560
     0.359048310         0.100000000         0.661860130
     0.374188900         0.100000000         0.677721700
     0.389329490         0.100000000         0.693583270
     0.404470080         0.100000000         0.709444840
     0.419610670         0.100000000         0.725306420
     0.434751260         0.100000000         0.741167990
     0.449891850         0.100000000         0.757029560
     0.465032440         0.100000000         0.772891130
     0.480173040         0.100000000         0.788752700
     0.495313630         0.100000000         0.804614280
     0.510454220         0.100000000         0.820475850
     0.525594810         0.100000000         0.836337420
     0.540735400         0.100000000         0.852198990
     0.555875990         0.100000000         0.868060560
     0.571016580         0.100000000         0.883922130
     0.586157170         0.100000000         0.899783710
     0.601297760         0.100000000         0.915645280
     0.616438360         0.100000000         0.931506850
     0.631578950         0.100000000         0.947368420
     0.646719540         0.100000000         0.963229990
     0.661860130         0.100000000         0.979091560
     0.677000720         0.100000000         0.994953140
     0.011535690         0.100000000         0.250180250
     0.026676280         0.100000000         0.266041820
     0.041816870         0.100000000         0.281903390
     0.056957460         0.100000000         0.297764960
     0.072098050         0.100000000         0.313626530
     0.087238640         0.100000000         0.329488100
     0.102379240         0.100000000         0.345349680
     0.117519830         0.100000000         0.361211250
     0.132660420         0.100000000         0.377072820
     0.147801010         0.100000000         0.392934390
     0.162941600         0.100000000         0.408795960
     0.178082190         0.100000000         0.424657530
     0.193222780         0.100000000         0.440519110
     0.208363370         0.100000000         0.456380680
     0.223503970         0.100000000         0.472242250
     0.238644560         0.100000000         0.488103820
     0.253785150         0.100000000         0.503965390
     0.268925740         0.100000000         0.519826960
     0.284066330         0.100000000         0.535688540
     0.299206920         0.100000000         0.551550110
     0.314347510         0.100000000         0.567411680
     0.329488100         0.100000000         0.583273250
     0.344628700         0.100000000         0.599134820
     0.359769290         0.100000000         0.614996400
     0.374909880         0.100000000         0.630857970
     0.390050470         0.100000000         0.646719540
     0.405191060         0.100000000         0.662581110
     0.420331650         0.100000000         0.678442680
     0.435472240         0.100000000         0.694304250
     0.450612830         0.100000000         0.710165830
     0.465753420         0.100000000         0.726027400
     0.480894020         0.100000000         0.741888970
     0.496034610         0.100000000         0.757750540
     0.511175200         0.100000000         0.773612110
     0.526315790         0.100000000         0.789473680
     0.541456380         0.100000000         0.805335260
     0.556596970         0.100000000         0.821196830
     0.571737560         0.100000000         0.837058400
     0.586878150         0.100000000         0.852919970
     0.602018750         0.100000000         0.868781540
     0.617159340         0.100000000         0.884643110
     0.632299930         0.100000000         0.900504690
     0.647440520         0.100000000         0.916366260
     0.662581110         0.100000000         0.932227830
     0.677721700         0.100000000         0.948089400
     0.692862290         0.100000000         0.963950970
     0.708002880         0.100000000         0.979812550
     0.723143480         0.100000000         0.995674120
     0.012256670         0.100000000         0.203316510
     0.027397260         0.100000000         0.219178080
     0.042537850         0.100000000         0.235039650
     0.057678440         0.100000000         0.250901230
     0.072819030         0.100000000         0.266762800
     0.087959630         0.100000000         0.282624370
     0.103100220         0.100000000         0.298485940
     0.118240810         0.100000000         0.314347510
     0.133381400         0.100000000         0.330209080
     0.148521990         0.100000000         0.346070660
     0.163662580         0.100000000         0.361932230
     0.178803170         0.100000000         0.377793800
     0.193943760         0.100000000         0.393655370
     0.209084350         0.100000000         0.409516940
     0.224224950         0.100000000         0.425378510
     0.239365540         0.100000000         0.441240090
     0.254506130         0.100000000         0.457101660
     0.269646720         0.100000000         0.472963230
     0.284787310         0.100000000         0.488824800
     0.299927900         0.100000000         0.504686370
     0.315068490         0.100000000         0.520547950
     0.330209080         0.100000000         0.536409520
     0.345349680         0.100000000         0.552271090
     0.360490270         0.100000000         0.568132660
     0.375630860         0.100000000         0.583994230
     0.390771450         0.100000000         0.599855800
     0.405912040         0.100000000         0.615717380
     0.421052630         0.100000000         0.631578950
     0.436193220         0.100000000         0.647440520
     0.451333810         0.100000000         0.663302090
     0.466474410         0.100000000         0.679163660
     0.481615000         0.100000000         0.695025230
     0.496755590         0.100000000         0.710886810
     0.511896180         0.100000000         0.726748380
     0.527036770         0.100000000         0.742609950
     0.542177360         0.100000000         0.758471520
     0.557317950         0.100000000         0.774333090
     0.572458540         0.100000000         0.790194660
     0.587599130         0.100000000         0.806056240
     0.602739730         0.100000000         0.821917810
     0.617880320         0.100000000         0.837779380
     0.633020910         0.100000000         0.853640950
     0.648161500         0.100000000         0.869502520
     0.663302090         0.100000000         0.885364100
     0.678442680         0.100000000         0.901225670
     0.693583270         0.100000000         0.917087240
     0.708723860         0.100000000         0.932948810
     0.723864460         0.100000000         0.948810380
     0.739005050         0.100000000         0.964671950
     0.754145640         0.100000000         0.980533530
     0.769286230         0.100000000         0.996395100
     0.012977650         0.100000000         0.156452780
     0.028118240         0.100000000         0.172314350
     0.043258830         0.100000000         0.188175920
     0.058399420         0.100000000         0.204037490
     0.073540010         0.100000000         0.219899060
     0.088680610         0.100000000         0.235760630
     0.103821200         0.100000000         0.251622210
     0.118961790         0.100000000         0.267483780
     0.134102380         0.100000000         0.283345350
     0.149242970         0.100000000         0.299206920
     0.164383560         0.100000000         0.315068490
     0.179524150         0.100000000         0.330930060
     0.194664740         0.100000000         0.346791640
     0.209805340         0.100000000         0.362653210
     0.224945930         0.100000000         0.378514780
     0.240086520         0.100000000         0.394376350
     0.255227110         0.100000000         0.410237920
     0.270367700         0.100000000         0.426099500
     0.285508290         0.100000000         0.441961070
     0.300648880         0.100000000         0.457822640
     0.315789470         0.100000000         0.473684210
     0.330930060         0.100000000         0.489545780
     0.346070660         0.100000000         0.505407350
     0.361211250         0.100000000         0.521268930
     0.376351840         0.100000000         0.537130500
     0.391492430         0.100000000         0.552992070
     0.406633020         0.100000000         0.568853640
     0.421773610         0.100000000         0.584715210
     0.436914200         0.100000000         0.600576780
     0.452054790         0.100000000         0.616438360
     0.467195390         0.100000000         0.632299930
     0.482335980         0.100000000         0.648161500
     0.497476570         0.100000000         0.664023070
     0.512617160         0.100000000         0.679884640
     0.527757750         0.100000000         0.695746210
     0.542898340         0.100000000         0.711607790
     0.558038930         0.100000000         0.727469360
     0.573179520         0.100000000         0.743330930
     0.588320120         0.100000000         0.759192500
     0.603460710         0.100000000         0.775054070
     0.618601300         0.100000000         0.790915650
     0.633741890         0.100000000         0.806777220
     0.648882480         0.100000000         0.822638790
     0.664023070         0.100000000         0.838500360
     0.679163660         0.100000000         0.854361930
     0.694304250         0.100000000         0.870223500
     0.709444840         0.100000000         0.886085080
     0.724585440         0.100000000         0.901946650
     0.739726030         0.100000000         0.917808220
     0.754866620         0.100000000         0.933669790
     0.770007210         0.100000000         0.949531360
     0.785147800         0.100000000         0.965392930
     0.800288390         0.100000000         0.981254510
     0.815428980         0.100000000         0.997116080