Generated by Twist2D
    1.0
      13.52725000       6.38996844       0.00000000
       1.22975000      14.90992636       0.00000000
       0.00000000       0.00000000      30.00000000
    C
    148
Direct
     0.02702703     0.70270270     0.10000000
     0.10810811     0.81081081     0.10000000
     0.18918919     0.91891892     0.10000000
     0.05405405     0.40540541     0.10000000
     0.13513514     0.51351351     0.10000000
     0.21621622     0.62162162     0.10000000
     0.29729730     0.72972973     0.10000000
     0.37837838     0.83783784     0.10000000
     0.45945946     0.94594595     0.10000000
     0.00000000     0.00000000     0.10000000
     0.08108108     0.10810811     0.10000000
     0.16216216     0.21621622     0.10000000
     0.24324324     0.32432432     0.10000000
     0.32432432     0.43243243     0.10000000
     0.40540541     0.54054054     0.10000000
     0.48648649     0.64864865     0.10000000
     0.56756757     0.75675676     0.10000000
     0.64864865     0.86486486     0.10000000
     0.72972973     0.97297297     0.10000000
     0.27027027     0.02702703     0.10000000
     0.35135135     0.13513514     0.10000000
     0.43243243     0.24324324     0.10000000
     0.51351351     0.35135135     0.10000000
     0.59459459     0.45945946     0.10000000
     0.67567568     0.56756757     0.10000000
     0.75675676     0.67567568     0.10000000
     0.83783784     0.78378378     0.10000000
     0.91891892     0.89189189     0.10000000
     0.54054054     0.05405405     0.10000000
     0.62162162     0.16216216     0.10000000
     0.70270270     0.27027027     0.10000000
     0.78378378     0.37837838     0.10000000
     0.86486486     0.48648649     0.10000000
     0.94594595     0.59459459     0.10000000
     0.81081081     0.08108108     0.10000000
     0.89189189     0.18918919     0.10000000
     0.97297297     0.29729730     0.10000000
     0.20720721     0.72072071     0.10000000
     0.28828829     0.82882882     0.10000000
     0.36936937     0.93693693     0.10000000
     0.23423423     0.42342342     0.10000000
     0.31531532     0.53153153     0.10000000
     0.39639640     0.63963963     0.10000000
     0.47747748     0.74774774     0.10000000
     0.55855856     0.85585585     0.10000000
     0.63963964     0.96396396     0.10000000
     0.18018018     0.01801801     0.10000000
     0.26126126     0.12612612     0.10000000
     0.34234234     0.23423423     0.10000000
     0.42342342     0.34234234     0.10000000
     0.50450451     0.45045044     0.10000000
     0.58558559     0.55855855     0.10000000
     0.66666667     0.66666666     0.10000000
     0.74774775     0.77477477     0.10000000
     0.82882883     0.88288288     0.10000000
     0.90990991     0.99099099     0.10000000
     0.45045045     0.04504504     0.10000000
     0.53153153     0.15315315     0.10000000
     0.61261261     0.26126126     0.10000000
     0.69369369     0.36936936     0.10000000
     0.77477478     0.47747747     0.10000000
     0.85585586     0.58558558     0.10000000
     0.93693694     0.69369369     0.10000000
     1.01801802     0.80180180     0.10000000
     1.09909910     0.90990990     0.10000000
     0.72072072     0.07207207     0.10000000
     0.80180180     0.18018017     0.10000000
     0.88288288     0.28828828     0.10000000
     0.96396396     0.39639639     0.10000000
     1.04504505     0.50450450     0.10000000
     1.12612613     0.61261261     0.10000000
     0.99099099     0.09909909     0.10000000
     1.07207207     0.20720720     0.10000000
     1.15315315     0.31531531     0.10000000
     0.08108108     0.81081081     0.21361333
     0.18918919     0.89189189     0.21361333
     0.29729730     0.97297297     0.21361333
     0.05405405     0.54054054     0.21361333
     0.16216216     0.62162162     0.21361333
     0.27027027     0.70270270     0.21361333
     0.37837838     0.78378378     0.21361333
     0.48648649     0.86486486     0.21361333
     0.59459459     0.94594595     0.21361333
     0.02702703     0.27027027     0.21361333
     0.13513514     0.35135135     0.21361333
     0.24324324     0.43243243     0.21361333
     0.35135135     0.51351351     0.21361333
     0.45945946     0.59459459     0.21361333
     0.56756757     0.67567568     0.21361333
     0.67567568     0.75675676     0.21361333
     0.78378378     0.83783784     0.21361333
     0.89189189     0.91891892     0.21361333
     0.00000000     0.00000000     0.21361333
     0.10810811     0.08108108     0.21361333
     0.21621622     0.16216216     0.21361333
     0.32432432     0.24324324     0.21361333
     0.43243243     0.32432432     0.21361333
     0.54054054     0.40540541     0.21361333
     0.64864865     0.48648649     0.21361333
     0.75675676     0.56756757     0.21361333
     0.86486486     0.64864865     0.21361333
     0.97297297     0.72972973     0.21361333
     0.40540541     0.05405405     0.21361333
     0.51351351     0.13513514     0.21361333
     0.62162162     0.21621622     0.21361333
     0.72972973     0.29729730     0.21361333
     0.83783784     0.37837838     0.21361333
     0.94594595     0.45945946     0.21361333
     0.70270270     0.02702703     0.21361333
     0.81081081     0.10810811     0.21361333
     0.91891892     0.18918919     0.21361333
     0.27927928     0.79279279     0.21361333
     0.38738739     0.87387387     0.21361333
     0.49549550     0.95495495     0.21361333
     0.25225225     0.52252252     0.21361333
     0.36036036     0.60360360     0.21361333
     0.46846847     0.68468468     0.21361333
     0.57657658     0.76576576     0.21361333
     0.68468468     0.84684684     0.21361333
     0.79279279     0.92792792     0.21361333
     0.22522522     0.25225225     0.21361333
     0.33333333     0.33333333     0.21361333
     0.44144144     0.41441441     0.21361333
     0.54954955     0.49549549     0.21361333
     0.65765766     0.57657657     0.21361333
     0.76576577     0.65765765     0.21361333
     0.87387387     0.73873873     0.21361333
     0.98198198     0.81981981     0.21361333
     1.09009009     0.90090090     0.21361333
     0.19819820    -0.01801802     0.21361333
     0.30630631     0.06306306     0.21361333
     0.41441441     0.14414414     0.21361333
     0.52252252     0.22522522     0.21361333
     0.63063063     0.30630630     0.21361333
     0.73873874     0.38738738     0.21361333
     0.84684685     0.46846846     0.21361333
     0.95495495     0.54954954     0.21361333
     1.06306306     0.63063063     0.21361333
     1.17117117     0.71171171     0.21361333
     0.60360360     0.03603603     0.21361333
     0.71171171     0.11711711     0.21361333
     0.81981982     0.19819819     0.21361333
     0.92792793     0.27927927     0.21361333
     1.03603604     0.36036035     0.21361333
     1.14414414     0.44144144     0.21361333
     0.90090090     0.00900900     0.21361333
     1.00900901     0.09009008     0.21361333
     1.11711712     0.17117117     0.21361333
