Generated by Twist2D
1.0
       35.6627497123        19.1699051754         0.0000000000
      -14.2039701352        26.4243681551         0.0000000000
       17.8313748562         9.5849525877        35.0640519066
    C
 1084
Direct
     0.003690040         0.100000000         0.892988930
     0.036900370         0.100000000         0.929889300
     0.070110700         0.100000000         0.966789670
     0.007380070         0.100000000         0.785977860
     0.040590410         0.100000000         0.822878230
     0.073800740         0.100000000         0.859778600
     0.107011070         0.100000000         0.896678970
     0.140221400         0.100000000         0.933579340
     0.173431730         0.100000000         0.970479700
     0.011070110         0.100000000         0.678966790
     0.044280440         0.100000000         0.715867160
     0.077490770         0.100000000         0.752767530
     0.110701110         0.100000000         0.789667900
     0.143911440         0.100000000         0.826568270
     0.177121770         0.100000000         0.863468630
     0.210332100         0.100000000         0.900369000
     0.243542440         0.100000000         0.937269370
     0.276752770         0.100000000         0.974169740
     0.014760150         0.100000000         0.571955720
     0.047970480         0.100000000         0.608856090
     0.081180810         0.100000000         0.645756460
     0.114391140         0.100000000         0.682656830
     0.147601480         0.100000000         0.719557200
     0.180811810         0.100000000         0.756457560
     0.214022140         0.100000000         0.793357930
     0.247232470         0.100000000         0.830258300
     0.280442800         0.100000000         0.867158670
     0.313653140         0.100000000         0.904059040
     0.346863470         0.100000000         0.940959410
     0.380073800         0.100000000         0.977859780
     0.018450180         0.100000000         0.464944650
     0.051660520         0.100000000         0.501845020
     0.084870850         0.100000000         0.538745390
     0.118081180         0.100000000         0.575645760
     0.151291510         0.100000000         0.612546130
     0.184501850         0.100000000         0.649446490
     0.217712180         0.100000000         0.686346860
     0.250922510         0.100000000         0.723247230
     0.284132840         0.100000000         0.760147600
     0.317343170         0.100000000         0.797047970
     0.350553510         0.100000000         0.833948340
     0.383763840         0.100000000         0.870848710
     0.416974170         0.100000000         0.907749080
     0.450184500         0.100000000         0.944649450
     0.483394830         0.100000000         0.981549820
     0.022140220         0.100000000         0.357933580
     0.055350550         0.100000000         0.394833950
     0.088560890         0.100000000         0.431734320
     0.121771220         0.100000000         0.468634690
     0.154981550         0.100000000         0.505535060
     0.188191880         0.100000000         0.542435420
     0.221402210         0.100000000         0.579335790
     0.254612550         0.100000000         0.616236160
     0.287822880         0.100000000         0.653136530
     0.321033210         0.100000000         0.690036900
     0.354243540         0.100000000         0.726937270
     0.387453870         0.100000000         0.763837640
     0.420664210         0.100000000         0.800738010
     0.453874540         0.100000000         0.837638380
     0.487084870         0.100000000         0.874538750
     0.520295200         0.100000000         0.911439110
     0.553505540         0.100000000         0.948339480
     0.586715870         0.100000000         0.985239850
     0.025830260         0.100000000         0.250922510
     0.059040590         0.100000000         0.287822880
     0.092250920         0.100000000         0.324723250
     0.125461250         0.100000000         0.361623620
     0.158671590         0.100000000         0.398523990
     0.191881920         0.100000000         0.435424350
     0.225092250         0.100000000         0.472324720
     0.258302580         0.100000000         0.509225090
     0.291512920         0.100000000         0.546125460
     0.324723250         0.100000000         0.583025830
     0.357933580         0.100000000         0.619926200
     0.391143910         0.100000000         0.656826570
     0.424354240         0.100000000         0.693726940
     0.457564580         0.100000000         0.730627310
     0.490774910         0.100000000         0.767527680
     0.523985240         0.100000000         0.804428040
     0.557195570         0.100000000         0.841328410
     0.590405900         0.100000000         0.878228780
     0.623616240         0.100000000         0.915129150
     0.656826570         0.100000000         0.952029520
     0.690036900         0.100000000         0.988929890
     0.029520300         0.100000000         0.143911440
     0.062730630         0.100000000         0.180811810
     0.095940960         0.100000000         0.217712180
     0.129151290         0.100000000         0.254612550
     0.162361620         0.100000000         0.291512920
     0.195571960         0.100000000         0.328413280
     0.228782290         0.100000000         0.365313650
     0.261992620         0.100000000         0.402214020
     0.295202950         0.100000000         0.439114390
     0.328413280         0.100000000         0.476014760
     0.361623620         0.100000000         0.512915130
     0.394833950         0.100000000         0.549815500
     0.428044280         0.100000000         0.586715870
     0.461254610         0.100000000         0.623616240
     0.494464940         0.100000000         0.660516610
     0.527675280         0.100000000         0.697416970
     0.560885610         0.100000000         0.734317340
     0.594095940         0.100000000         0.771217710
     0.627306270         0.100000000         0.808118080
     0.660516610         0.100000000         0.845018450
     0.693726940         0.100000000         0.881918820
     0.726937270         0.100000000         0.918819190
     0.760147600         0.100000000         0.955719560
     0.793357930         0.100000000         0.992619930
     0.000000000         0.100000000         0.000000000
     0.033210330         0.100000000         0.036900370
     0.066420660         0.100000000         0.073800740
     0.099631000         0.100000000         0.110701110
     0.132841330         0.100000000         0.147601480
     0.166051660         0.100000000         0.184501850
     0.199261990         0.100000000         0.221402210
     0.232472320         0.100000000         0.258302580
     0.265682660         0.100000000         0.295202950
     0.298892990         0.100000000         0.332103320
     0.332103320         0.100000000         0.369003690
     0.365313650         0.100000000         0.405904060
     0.398523990         0.100000000         0.442804430
     0.431734320         0.100000000         0.479704800
     0.464944650         0.100000000         0.516605170
     0.498154980         0.100000000         0.553505540
     0.531365310         0.100000000         0.590405900
     0.564575650         0.100000000         0.627306270
     0.597785980         0.100000000         0.664206640
     0.630996310         0.100000000         0.701107010
     0.664206640         0.100000000         0.738007380
     0.697416970         0.100000000         0.774907750
     0.730627310         0.100000000         0.811808120
     0.763837640         0.100000000         0.848708490
     0.797047970         0.100000000         0.885608860
     0.830258300         0.100000000         0.922509230
     0.863468630         0.100000000         0.959409590
     0.896678970         0.100000000         0.996309960
     0.103321030         0.100000000         0.003690040
     0.136531370         0.100000000         0.040590410
     0.169741700         0.100000000         0.077490770
     0.202952030         0.100000000         0.114391140
     0.236162360         0.100000000         0.151291510
     0.269372690         0.100000000         0.188191880
     0.302583030         0.100000000         0.225092250
     0.335793360         0.100000000         0.261992620
     0.369003690         0.100000000         0.298892990
     0.402214020         0.100000000         0.335793360
     0.435424350         0.100000000         0.372693730
     0.468634690         0.100000000         0.409594100
     0.501845020         0.100000000         0.446494460
     0.535055350         0.100000000         0.483394830
     0.568265680         0.100000000         0.520295200
     0.601476010         0.100000000         0.557195570
     0.634686350         0.100000000         0.594095940
     0.667896680         0.100000000         0.630996310
     0.701107010         0.100000000         0.667896680
     0.734317340         0.100000000         0.704797050
     0.767527680         0.100000000         0.741697420
     0.800738010         0.100000000         0.778597790
     0.833948340         0.100000000         0.815498150
     0.867158670         0.100000000         0.852398520
     0.900369000         0.100000000         0.889298890
     0.933579340         0.100000000         0.926199260
     0.966789670         0.100000000         0.963099630
     0.206642070         0.100000000         0.007380070
     0.239852400         0.100000000         0.044280440
     0.273062730         0.100000000         0.081180810
     0.306273060         0.100000000         0.118081180
     0.339483390         0.100000000         0.154981550
     0.372693730         0.100000000         0.191881920
     0.405904060         0.100000000         0.228782290
     0.439114390         0.100000000         0.265682660
     0.472324720         0.100000000         0.302583030
     0.505535060         0.100000000         0.339483390
     0.538745390         0.100000000         0.376383760
     0.571955720         0.100000000         0.413284130
     0.605166050         0.100000000         0.450184500
     0.638376380         0.100000000         0.487084870
     0.671586720         0.100000000         0.523985240
     0.704797050         0.100000000         0.560885610
     0.738007380         0.100000000         0.597785980
     0.771217710         0.100000000         0.634686350
     0.804428040         0.100000000         0.671586720
     0.837638380         0.100000000         0.708487080
     0.870848710         0.100000000         0.745387450
     0.904059040         0.100000000         0.782287820
     0.937269370         0.100000000         0.819188190
     0.970479700         0.100000000         0.856088560
     0.309963100         0.100000000         0.011070110
     0.343173430         0.100000000         0.047970480
     0.376383760         0.100000000         0.084870850
     0.409594100         0.100000000         0.121771220
     0.442804430         0.100000000         0.158671590
     0.476014760         0.100000000         0.195571960
     0.509225090         0.100000000         0.232472320
     0.542435420         0.100000000         0.269372690
     0.575645760         0.100000000         0.306273060
     0.608856090         0.100000000         0.343173430
     0.642066420         0.100000000         0.380073800
     0.675276750         0.100000000         0.416974170
     0.708487080         0.100000000         0.453874540
     0.741697420         0.100000000         0.490774910
     0.774907750         0.100000000         0.527675280
     0.808118080         0.100000000         0.564575650
     0.841328410         0.100000000         0.601476010
     0.874538750         0.100000000         0.638376380
     0.907749080         0.100000000         0.675276750
     0.940959410         0.100000000         0.712177120
     0.974169740         0.100000000         0.749077490
     0.413284130         0.100000000         0.014760150
     0.446494460         0.100000000         0.051660520
     0.479704800         0.100000000         0.088560890
     0.512915130         0.100000000         0.125461250
     0.546125460         0.100000000         0.162361620
     0.579335790         0.100000000         0.199261990
     0.612546130         0.100000000         0.236162360
     0.645756460         0.100000000         0.273062730
     0.678966790         0.100000000         0.309963100
     0.712177120         0.100000000         0.346863470
     0.745387450         0.100000000         0.383763840
     0.778597790         0.100000000         0.420664210
     0.811808120         0.100000000         0.457564580
     0.845018450         0.100000000         0.494464940
     0.878228780         0.100000000         0.531365310
     0.911439110         0.100000000         0.568265680
     0.944649450         0.100000000         0.605166050
     0.977859780         0.100000000         0.642066420
     0.516605170         0.100000000         0.018450180
     0.549815500         0.100000000         0.055350550
     0.583025830         0.100000000         0.092250920
     0.616236160         0.100000000         0.129151290
     0.649446490         0.100000000         0.166051660
     0.682656830         0.100000000         0.202952030
     0.715867160         0.100000000         0.239852400
     0.749077490         0.100000000         0.276752770
     0.782287820         0.100000000         0.313653140
     0.815498150         0.100000000         0.350553510
     0.848708490         0.100000000         0.387453870
     0.881918820         0.100000000         0.424354240
     0.915129150         0.100000000         0.461254610
     0.948339480         0.100000000         0.498154980
     0.981549820         0.100000000         0.535055350
     0.619926200         0.100000000         0.022140220
     0.653136530         0.100000000         0.059040590
     0.686346860         0.100000000         0.095940960
     0.719557200         0.100000000         0.132841330
     0.752767530         0.100000000         0.169741700
     0.785977860         0.100000000         0.206642070
     0.819188190         0.100000000         0.243542440
     0.852398520         0.100000000         0.280442800
     0.885608860         0.100000000         0.317343170
     0.918819190         0.100000000         0.354243540
     0.952029520         0.100000000         0.391143910
     0.985239850         0.100000000         0.428044280
     0.723247230         0.100000000         0.025830260
     0.756457560         0.100000000         0.062730630
     0.789667900         0.100000000         0.099631000
     0.822878230         0.100000000         0.136531370
     0.856088560         0.100000000         0.173431730
     0.889298890         0.100000000         0.210332100
     0.922509230         0.100000000         0.247232470
     0.955719560         0.100000000         0.284132840
     0.988929890         0.100000000         0.321033210
     0.826568270         0.100000000         0.029520300
     0.859778600         0.100000000         0.066420660
     0.892988930         0.100000000         0.103321030
     0.926199260         0.100000000         0.140221400
     0.959409590         0.100000000         0.177121770
     0.992619930         0.100000000         0.214022140
     0.929889300         0.100000000         0.033210330
     0.963099630         0.100000000         0.070110700
     0.996309960         0.100000000         0.107011070
     0.072570730         0.100000000         0.895448950
     0.105781060         0.100000000         0.932349320
     0.138991390         0.100000000         0.969249690
     0.076260760         0.100000000         0.788437880
     0.109471090         0.100000000         0.825338250
     0.142681430         0.100000000         0.862238620
     0.175891760         0.100000000         0.899138990
     0.209102090         0.100000000         0.936039360
     0.242312420         0.100000000         0.972939730
     0.079950800         0.100000000         0.681426810
     0.113161130         0.100000000         0.718327180
     0.146371460         0.100000000         0.755227550
     0.179581800         0.100000000         0.792127920
     0.212792130         0.100000000         0.829028290
     0.246002460         0.100000000         0.865928660
     0.279212790         0.100000000         0.902829030
     0.312423120         0.100000000         0.939729400
     0.345633460         0.100000000         0.976629760
     0.083640840         0.100000000         0.574415740
     0.116851170         0.100000000         0.611316110
     0.150061500         0.100000000         0.648216480
     0.183271830         0.100000000         0.685116850
     0.216482160         0.100000000         0.722017220
     0.249692500         0.100000000         0.758917590
     0.282902830         0.100000000         0.795817960
     0.316113160         0.100000000         0.832718330
     0.349323490         0.100000000         0.869618690
     0.382533830         0.100000000         0.906519060
     0.415744160         0.100000000         0.943419430
     0.448954490         0.100000000         0.980319800
     0.087330870         0.100000000         0.467404670
     0.120541210         0.100000000         0.504305040
     0.153751540         0.100000000         0.541205410
     0.186961870         0.100000000         0.578105780
     0.220172200         0.100000000         0.615006150
     0.253382530         0.100000000         0.651906520
     0.286592870         0.100000000         0.688806890
     0.319803200         0.100000000         0.725707250
     0.353013530         0.100000000         0.762607620
     0.386223860         0.100000000         0.799507990
     0.419434190         0.100000000         0.836408360
     0.452644530         0.100000000         0.873308730
     0.485854860         0.100000000         0.910209100
     0.519065190         0.100000000         0.947109470
     0.552275520         0.100000000         0.984009840
     0.091020910         0.100000000         0.360393600
     0.124231240         0.100000000         0.397293970
     0.157441570         0.100000000         0.434194340
     0.190651910         0.100000000         0.471094710
     0.223862240         0.100000000         0.507995080
     0.257072570         0.100000000         0.544895450
     0.290282900         0.100000000         0.581795820
     0.323493240         0.100000000         0.618696180
     0.356703570         0.100000000         0.655596550
     0.389913900         0.100000000         0.692496920
     0.423124230         0.100000000         0.729397290
     0.456334560         0.100000000         0.766297660
     0.489544900         0.100000000         0.803198030
     0.522755230         0.100000000         0.840098400
     0.555965560         0.100000000         0.876998770
     0.589175890         0.100000000         0.913899140
     0.622386220         0.100000000         0.950799510
     0.655596560         0.100000000         0.987699870
     0.094710950         0.100000000         0.253382530
     0.127921280         0.100000000         0.290282900
     0.161131610         0.100000000         0.327183270
     0.194341940         0.100000000         0.364083640
     0.227552280         0.100000000         0.400984010
     0.260762610         0.100000000         0.437884380
     0.293972940         0.100000000         0.474784750
     0.327183270         0.100000000         0.511685110
     0.360393600         0.100000000         0.548585480
     0.393603940         0.100000000         0.585485850
     0.426814270         0.100000000         0.622386220
     0.460024600         0.100000000         0.659286590
     0.493234930         0.100000000         0.696186960
     0.526445260         0.100000000         0.733087330
     0.559655600         0.100000000         0.769987700
     0.592865930         0.100000000         0.806888070
     0.626076260         0.100000000         0.843788440
     0.659286590         0.100000000         0.880688800
     0.692496930         0.100000000         0.917589170
     0.725707260         0.100000000         0.954489540
     0.758917590         0.100000000         0.991389910
     0.098400980         0.100000000         0.146371460
     0.131611320         0.100000000         0.183271830
     0.164821650         0.100000000         0.220172200
     0.198031980         0.100000000         0.257072570
     0.231242310         0.100000000         0.293972940
     0.264452640         0.100000000         0.330873310
     0.297662980         0.100000000         0.367773680
     0.330873310         0.100000000         0.404674040
     0.364083640         0.100000000         0.441574410
     0.397293970         0.100000000         0.478474780
     0.430504310         0.100000000         0.515375150
     0.463714640         0.100000000         0.552275520
     0.496924970         0.100000000         0.589175890
     0.530135300         0.100000000         0.626076260
     0.563345630         0.100000000         0.662976630
     0.596555970         0.100000000         0.699877000
     0.629766300         0.100000000         0.736777370
     0.662976630         0.100000000         0.773677730
     0.696186960         0.100000000         0.810578100
     0.729397290         0.100000000         0.847478470
     0.762607630         0.100000000         0.884378840
     0.795817960         0.100000000         0.921279210
     0.829028290         0.100000000         0.958179580
     0.862238620         0.100000000         0.995079950
     0.068880690         0.100000000         0.002460020
     0.102091020         0.100000000         0.039360390
     0.135301350         0.100000000         0.076260760
     0.168511690         0.100000000         0.113161130
     0.201722020         0.100000000         0.150061500
     0.234932350         0.100000000         0.186961870
     0.268142680         0.100000000         0.223862240
     0.301353010         0.100000000         0.260762610
     0.334563350         0.100000000         0.297662970
     0.367773680         0.100000000         0.334563340
     0.400984010         0.100000000         0.371463710
     0.434194340         0.100000000         0.408364080
     0.467404670         0.100000000         0.445264450
     0.500615010         0.100000000         0.482164820
     0.533825340         0.100000000         0.519065190
     0.567035670         0.100000000         0.555965560
     0.600246000         0.100000000         0.592865930
     0.633456330         0.100000000         0.629766300
     0.666666670         0.100000000         0.666666660
     0.699877000         0.100000000         0.703567030
     0.733087330         0.100000000         0.740467400
     0.766297660         0.100000000         0.777367770
     0.799508000         0.100000000         0.814268140
     0.832718330         0.100000000         0.851168510
     0.865928660         0.100000000         0.888068880
     0.899138990         0.100000000         0.924969250
     0.932349320         0.100000000         0.961869620
     0.965559660         0.100000000         0.998769990
     0.172201720         0.100000000         0.006150060
     0.205412050         0.100000000         0.043050430
     0.238622390         0.100000000         0.079950800
     0.271832720         0.100000000         0.116851170
     0.305043050         0.100000000         0.153751540
     0.338253380         0.100000000         0.190651900
     0.371463710         0.100000000         0.227552270
     0.404674050         0.100000000         0.264452640
     0.437884380         0.100000000         0.301353010
     0.471094710         0.100000000         0.338253380
     0.504305040         0.100000000         0.375153750
     0.537515380         0.100000000         0.412054120
     0.570725710         0.100000000         0.448954490
     0.603936040         0.100000000         0.485854860
     0.637146370         0.100000000         0.522755230
     0.670356700         0.100000000         0.559655590
     0.703567040         0.100000000         0.596555960
     0.736777370         0.100000000         0.633456330
     0.769987700         0.100000000         0.670356700
     0.803198030         0.100000000         0.707257070
     0.836408360         0.100000000         0.744157440
     0.869618700         0.100000000         0.781057810
     0.902829030         0.100000000         0.817958180
     0.936039360         0.100000000         0.854858550
     0.969249690         0.100000000         0.891758920
     0.002460020         0.100000000         0.928659280
     0.035670360         0.100000000         0.965559650
     0.275522760         0.100000000         0.009840100
     0.308733090         0.100000000         0.046740470
     0.341943420         0.100000000         0.083640830
     0.375153750         0.100000000         0.120541200
     0.408364080         0.100000000         0.157441570
     0.441574420         0.100000000         0.194341940
     0.474784750         0.100000000         0.231242310
     0.507995080         0.100000000         0.268142680
     0.541205410         0.100000000         0.305043050
     0.574415740         0.100000000         0.341943420
     0.607626080         0.100000000         0.378843790
     0.640836410         0.100000000         0.415744160
     0.674046740         0.100000000         0.452644520
     0.707257070         0.100000000         0.489544890
     0.740467400         0.100000000         0.526445260
     0.773677740         0.100000000         0.563345630
     0.806888070         0.100000000         0.600246000
     0.840098400         0.100000000         0.637146370
     0.873308730         0.100000000         0.674046740
     0.906519070         0.100000000         0.710947110
     0.939729400         0.100000000         0.747847480
     0.972939730         0.100000000         0.784747850
     0.006150060         0.100000000         0.821648210
     0.039360390         0.100000000         0.858548580
     0.378843790         0.100000000         0.013530130
     0.412054120         0.100000000         0.050430500
     0.445264450         0.100000000         0.087330870
     0.478474780         0.100000000         0.124231240
     0.511685120         0.100000000         0.161131610
     0.544895450         0.100000000         0.198031980
     0.578105780         0.100000000         0.234932350
     0.611316110         0.100000000         0.271832720
     0.644526450         0.100000000         0.308733090
     0.677736780         0.100000000         0.345633450
     0.710947110         0.100000000         0.382533820
     0.744157440         0.100000000         0.419434190
     0.777367770         0.100000000         0.456334560
     0.810578110         0.100000000         0.493234930
     0.843788440         0.100000000         0.530135300
     0.876998770         0.100000000         0.567035670
     0.910209100         0.100000000         0.603936040
     0.943419430         0.100000000         0.640836410
     0.976629770         0.100000000         0.677736780
     0.009840100         0.100000000         0.714637140
     0.043050430         0.100000000         0.751537510
     0.482164820         0.100000000         0.017220170
     0.515375150         0.100000000         0.054120540
     0.548585490         0.100000000         0.091020910
     0.581795820         0.100000000         0.127921280
     0.615006150         0.100000000         0.164821650
     0.648216480         0.100000000         0.201722020
     0.681426810         0.100000000         0.238622380
     0.714637150         0.100000000         0.275522750
     0.747847480         0.100000000         0.312423120
     0.781057810         0.100000000         0.349323490
     0.814268140         0.100000000         0.386223860
     0.847478470         0.100000000         0.423124230
     0.880688810         0.100000000         0.460024600
     0.913899140         0.100000000         0.496924970
     0.947109470         0.100000000         0.533825340
     0.980319800         0.100000000         0.570725710
     0.013530140         0.100000000         0.607626070
     0.046740470         0.100000000         0.644526440
     0.585485850         0.100000000         0.020910210
     0.618696190         0.100000000         0.057810580
     0.651906520         0.100000000         0.094710940
     0.685116850         0.100000000         0.131611310
     0.718327180         0.100000000         0.168511680
     0.751537520         0.100000000         0.205412050
     0.784747850         0.100000000         0.242312420
     0.817958180         0.100000000         0.279212790
     0.851168510         0.100000000         0.316113160
     0.884378840         0.100000000         0.353013530
     0.917589180         0.100000000         0.389913900
     0.950799510         0.100000000         0.426814270
     0.984009840         0.100000000         0.463714640
     0.017220170         0.100000000         0.500615000
     0.050430500         0.100000000         0.537515370
     0.688806890         0.100000000         0.024600240